 vasp.5.4.4.18Apr17-6-g9f103f2a35 (build Dec 15 2018 21:27:11) complex

 executed on             LinuxIFC date 2022.02.11  21:28:16

 INCAR:
 POTCAR:    PAW_PBE Ni 02Aug2007
 POTCAR:    PAW_PBE Fe 06Sep2000
 POTCAR:    PAW_PBE O 08Apr2002

 POTCAR:    PAW_PBE Ni 02Aug2007
   VRHFIN =Ni:

   TITEL  = PAW_PBE Ni 02Aug2007
   POMASS =   58.690; ZVAL   =   10.000    mass and valenz
   ENMAX  =  269.532; ENMIN  =  202.149 eV

 POTCAR:    PAW_PBE Fe 06Sep2000
   VRHFIN =Fe:  d7 s1

   TITEL  = PAW_PBE Fe 06Sep2000
   POMASS =   55.847; ZVAL   =    8.000    mass and valenz
   ENMAX  =  267.882; ENMIN  =  200.911 eV

 POTCAR:    PAW_PBE O 08Apr2002
   VRHFIN =O: s2p4

   TITEL  = PAW_PBE O 08Apr2002
   POMASS =   16.000; ZVAL   =    6.000    mass and valenz
   ENMAX  =  400.000; ENMIN  =  300.000 eV

 Optimization of the real space projectors (new method)

 maximal supplied QI-value         = 16.25
 optimisation between [QCUT,QGAM] = [ 11.54, 23.24] = [ 37.28,151.24] Ry
 Optimized for a Real-space Cutoff    1.45 Angstroem

   l    n(q)    QCUT    max X(q) W(low)/X(q) W(high)/X(q)  e(spline)
   2      9    11.539    60.317    0.19E-03    0.47E-04    0.16E-06
   2      9    11.539    55.921    0.19E-03    0.48E-04    0.16E-06
   0     10    11.539    51.690    0.80E-04    0.50E-04    0.24E-06
   0     10    11.539    30.015    0.73E-04    0.45E-04    0.22E-06
   1     10    11.539    18.849    0.87E-04    0.16E-03    0.71E-07
   1     10    11.539    14.624    0.73E-04    0.13E-03    0.64E-07
 Optimization of the real space projectors (new method)

[...]

   l    n(q)    QCUT    max X(q) W(low)/X(q) W(high)/X(q)  e(spline)
   2     10    11.539    80.901    0.11E-03    0.14E-03    0.21E-06
   2     10    11.539    75.754    0.11E-03    0.14E-03    0.22E-06
   0     11    11.539    58.752    0.52E-04    0.18E-04    0.33E-06
   0     11    11.539    30.679    0.44E-04    0.16E-04    0.30E-06
   1     10    11.539    17.977    0.53E-04    0.29E-04    0.13E-06
   1     10    11.539    13.559    0.44E-04    0.25E-04    0.11E-06
 Optimization of the real space projectors (new method)

 maximal supplied QI-value         = 24.76
 optimisation between [QCUT,QGAM] = [ 11.64, 23.27] = [ 37.91,151.63] Ry
 Optimized for a Real-space Cutoff    1.14 Angstroem

   l    n(q)    QCUT    max X(q) W(low)/X(q) W(high)/X(q)  e(spline)
   0      8    11.635    20.381    0.10E-03    0.33E-03    0.24E-06
   0      8    11.635    15.268    0.11E-03    0.35E-03    0.26E-06
   1      7    11.635     5.964    0.24E-03    0.31E-03    0.30E-06
   1      7    11.635     5.382    0.22E-03    0.25E-03    0.26E-06
  PAW_PBE Ni 02Aug2007                  :
  PAW_PBE Fe 06Sep2000                  :
  PAW_PBE O 08Apr2002                   :

 POSCAR: POSCAR
  positions in direct lattice
  velocities in cartesian coordinates
 exchange correlation table for  LEXCH =        8
   RHO(1)=    0.500       N(1)  =     2000
   RHO(2)=  100.500       N(2)  =     4000

 VTST: version 3.2, (02/03/18)

 CHAIN: initializing optimizer

 OPT: Using VASP Conjugate-Gradient optimizer
 CHAIN: Read ICHAIN            0

 POSCAR: POSCAR
  positions in direct lattice
  velocities in cartesian coordinates

 ion  position               nearest neighbor table
   1  0.999  0.001  0.191-  59 2.42  62 2.45  35 2.45  23 2.50  32 2.50   5 2.52  40 2.52  37 2.52
                             2 2.53   4 2.53  21 2.54  34 2.54
   2  0.248  0.999  0.192-  60 2.43   6 2.45  50 2.47  59 2.48  36 2.48  37 2.50   3 2.51  28 2.52
                             5 2.52  21 2.53   1 2.53   8 2.56
   3  0.499  0.002  0.192-  60 2.39  61 2.42  39 2.43  36 2.49  30 2.50  34 2.51   2 2.51   8 2.52
                            11 2.52   7 2.53  50 2.54  51 2.54
   4  0.998  0.251  0.192-  43 2.44  35 2.45  10 2.48  42 2.49  19 2.50  34 2.50  13 2.50   7 2.53
                             1 2.53  40 2.53   5 2.55  46 2.55
   5  0.249  0.249  0.191-   6 2.46  45 2.47  36 2.48  35 2.48  37 2.50  46 2.50   1 2.52  42 2.52
                             2 2.52  16 2.54   4 2.55  44 2.55
   6  0.327  0.164  0.285-  17 2.43  38 2.44   2 2.45  39 2.45   5 2.46   9 2.46  36 2.46  59 2.51
                            35 2.51  60 2.56  15 2.57  45 2.62
   7  0.749  0.253  0.193-  18 2.43  10 2.44  39 2.46  14 2.49  48 2.49  13 2.51  34 2.51   4 2.53
                             3 2.53  11 2.54  36 2.55  19 2.55
   8  0.418  0.084  0.094-  37 2.49  36 2.51  16 2.51   3 2.52  11 2.52  30 2.53  28 2.53  48 2.56
                             2 2.56
   9  0.410  0.081  0.379-  68 1.84   6 2.46  17 2.47  29 2.49  39 2.49  49 2.49  60 2.52  31 2.60
                            12 2.60  38 2.60
  10  0.830  0.168  0.286-  34 2.43  12 2.44  41 2.44   7 2.44  20 2.45   4 2.48  62 2.50  35 2.53
                            18 2.54  61 2.58  39 2.60  43 2.62
  11  0.668  0.085  0.096-  34 2.51  40 2.51  48 2.51   8 2.52   3 2.52  19 2.53  30 2.54  63 2.54
                             7 2.54
  12  0.667  0.080  0.379-  68 1.84  10 2.44  20 2.50  49 2.50  64 2.51  41 2.54  61 2.57  39 2.59
                            31 2.60   9 2.60
  13  0.999  0.499  0.193-  22 2.42  18 2.42  43 2.46  53 2.50   4 2.50  42 2.51   7 2.51  19 2.52
                            50 2.52  21 2.53  14 2.53  26 2.55
  14  0.748  0.499  0.192-  15 2.42  18 2.43  44 2.48   7 2.49  48 2.49  57 2.52  26 2.52  21 2.52
                            23 2.53  13 2.53  56 2.53  36 2.57
  15  0.580  0.419  0.282-  49 2.38  44 2.38  14 2.42  36 2.46  58 2.47  39 2.49  55 2.50  45 2.54
                            17 2.54  18 2.55   6 2.57  56 2.60
  16  0.420  0.333  0.094-  36 2.51   8 2.51  37 2.52  57 2.52  44 2.52  46 2.53  24 2.54  48 2.54
                             5 2.54
  17  0.408  0.325  0.379-  66 1.86   6 2.43   9 2.47  47 2.51  38 2.51  15 2.54  49 2.55  45 2.58
                            25 2.59  58 2.64
  18  0.834  0.421  0.284-  49 2.34  13 2.42  14 2.43   7 2.43  27 2.46  22 2.50  20 2.54  10 2.54
                            15 2.55  39 2.59  56 2.60  43 2.65
  19  0.919  0.335  0.096-  48 2.49   4 2.50  40 2.51  53 2.51  13 2.52  11 2.53  26 2.54  46 2.54
                             7 2.55
  20  0.914  0.328  0.380-  67 1.89  10 2.45  54 2.48  12 2.50  47 2.52  41 2.53  18 2.54  49 2.56
                            43 2.60  27 2.63
  21  0.998  0.749  0.193-  22 2.42  56 2.44  59 2.45  50 2.48  23 2.48  32 2.50  26 2.52  14 2.52
                             2 2.53  13 2.53   1 2.54  28 2.55
  22  0.083  0.667  0.283-  50 2.38  29 2.39  13 2.42  21 2.42  54 2.49  18 2.50  52 2.51  60 2.53
                            43 2.56  27 2.57  56 2.58  59 2.58
  23  0.753  0.752  0.192-  56 2.41  55 2.42  62 2.45  21 2.48  63 2.49   1 2.50  32 2.51  57 2.52
                            14 2.53  44 2.54  51 2.57  34 2.58
  24  0.417  0.584  0.096-  46 2.49  44 2.50  51 2.51  57 2.52  30 2.52  63 2.53  16 2.54  42 2.56
                            53 2.57
  25  0.410  0.582  0.377-  66 1.89  54 2.43  31 2.45  45 2.45  52 2.50  47 2.53  58 2.53  55 2.54
                            64 2.57  17 2.59
  26  0.916  0.585  0.095-  48 2.48  32 2.48  57 2.50  53 2.51  21 2.52  14 2.52  28 2.53  19 2.54
                            13 2.55
  27  0.903  0.582  0.379-  67 1.87  58 2.44  18 2.46  56 2.46  33 2.49  49 2.56  22 2.57  29 2.60
                            20 2.63  54 2.71
  28  0.167  0.835  0.095-  32 2.48  37 2.49  53 2.50   2 2.52  50 2.53   8 2.53  26 2.53  30 2.54
                            21 2.55
  29  0.164  0.835  0.372-  22 2.39  59 2.40  60 2.43   9 2.49  31 2.54  38 2.56  33 2.58  27 2.60
                            54 2.69
  30  0.417  0.833  0.097-  51 2.49   3 2.50  53 2.52  24 2.52   8 2.53  11 2.54  28 2.54  63 2.54
                            50 2.55
  31  0.410  0.824  0.378-  68 1.85  25 2.45  52 2.46  60 2.50  54 2.53  29 2.54  61 2.54  64 2.56
                            12 2.60   9 2.60
  32  0.920  0.833  0.095-  28 2.48  26 2.48   1 2.50  21 2.50  23 2.51  57 2.53  37 2.54  63 2.54
                            40 2.57
  33  0.908  0.831  0.379-  65 1.91  56 2.40  58 2.45  64 2.45  41 2.46  27 2.49  59 2.49  62 2.51
                            38 2.52  29 2.58
  34  0.749  0.005  0.193-  61 2.39  62 2.40  10 2.43   4 2.50  11 2.51   7 2.51   3 2.51  63 2.54
                             1 2.54  51 2.55  40 2.57  23 2.58
  35  0.078  0.164  0.284-  47 2.30  38 2.36  41 2.38   4 2.45   1 2.45  59 2.46  62 2.47   5 2.48
                            43 2.50   6 2.51  10 2.53  45 2.61
  36  0.493  0.245  0.192-  39 2.37  15 2.46   6 2.46   5 2.48   2 2.48   3 2.49  16 2.51   8 2.51
                            44 2.52   7 2.55  14 2.57  48 2.57
  37  0.171  0.083  0.095-  28 2.49   8 2.49   2 2.50   5 2.50  16 2.52   1 2.52  32 2.54  46 2.57
                            40 2.58
  38  0.154  0.083  0.375-  65 1.81  35 2.36  41 2.36  59 2.40   6 2.44  47 2.45  17 2.51  33 2.52
                            29 2.56   9 2.60
  39  0.572  0.169  0.283-  49 2.25  36 2.37   3 2.43   6 2.45   7 2.46  60 2.47   9 2.49  15 2.49
                            12 2.59  18 2.59  10 2.60  61 2.66
  40  0.917  0.086  0.094-  19 2.51  11 2.51   1 2.52  63 2.53   4 2.53  46 2.55  34 2.57  32 2.57
                            37 2.58
  41  0.918  0.079  0.375-  65 1.83  38 2.36  35 2.38  62 2.39  10 2.44  33 2.46  47 2.51  64 2.51
                            20 2.53  12 2.54
  42  0.246  0.497  0.194-  43 2.31  45 2.32  52 2.40   4 2.49  13 2.51  46 2.51   5 2.52  53 2.54
                            51 2.55  24 2.56  44 2.58  50 2.59
  43  0.095  0.420  0.283-  47 2.28  42 2.31  54 2.34  45 2.36   4 2.44  13 2.46  52 2.47  35 2.50
                            22 2.56  20 2.60  10 2.62  18 2.65
  44  0.503  0.500  0.191-  15 2.38  55 2.40  45 2.44  14 2.48  57 2.49  24 2.50  36 2.52  16 2.52
                            23 2.54   5 2.55  51 2.55  42 2.58
  45  0.332  0.426  0.281-  42 2.32  43 2.36  47 2.37  44 2.44  25 2.45   5 2.47  52 2.47  55 2.47
                            15 2.54  17 2.58  35 2.61   6 2.62
  46  0.171  0.337  0.096-  24 2.49   5 2.50  42 2.51  16 2.53  19 2.54   4 2.55  53 2.55  40 2.55
                            37 2.57
  47  0.163  0.330  0.368-  43 2.28  35 2.30  45 2.37  54 2.42  38 2.45  41 2.51  17 2.51  20 2.52
                            25 2.53
  48  0.673  0.336  0.096-  26 2.48  19 2.49  14 2.49   7 2.49  11 2.51  57 2.53  16 2.54   8 2.56
                            36 2.57
  49  0.659  0.323  0.368-  39 2.25  18 2.34  15 2.38   9 2.49  12 2.50  17 2.55  27 2.56  20 2.56
                            58 2.67
  50  0.245  0.753  0.193-  60 2.37  22 2.38  52 2.39   2 2.47  21 2.48  53 2.51  13 2.52  28 2.53
                             3 2.54  30 2.55  51 2.57  42 2.59
  51  0.498  0.750  0.193-  61 2.33  55 2.35  52 2.37  30 2.49  24 2.51  63 2.52   3 2.54  44 2.55
                            34 2.55  42 2.55  23 2.57  50 2.57
  52  0.334  0.671  0.281-  51 2.37  50 2.39  42 2.40  61 2.44  60 2.46  31 2.46  45 2.47  43 2.47
                            54 2.48  25 2.50  55 2.51  22 2.51
  53  0.165  0.586  0.097-  13 2.50  28 2.50  50 2.51  26 2.51  19 2.51  30 2.52  42 2.54  46 2.55
                            24 2.57
[...]
   -.670E+02 0.141E+02 0.283E+04   0.674E+02 -.140E+02 -.283E+04   -.256E+00 -.618E-02 -.654E+00   0.382E-02 -.618E-02 0.135E-02
   -.831E+02 0.125E+03 -.256E+04   0.833E+02 -.128E+03 0.256E+04   -.179E+00 0.210E+01 0.755E+00   -.494E-02 0.123E-01 -.489E-02
   0.641E+01 -.250E+02 0.960E+03   -.648E+01 0.248E+02 -.960E+03   0.101E+00 0.160E+00 -.132E+00   0.196E-03 -.303E-02 0.907E-02
   -.801E+02 -.270E+02 -.764E+03   0.803E+02 0.271E+02 0.764E+03   -.335E+00 -.567E-01 0.547E+00   0.267E-01 -.256E-02 0.827E-02
   0.146E+03 -.116E+02 0.967E+03   -.146E+03 0.115E+02 -.967E+03   0.359E+00 0.132E+00 -.518E+00   -.135E-01 -.295E-03 -.247E-02
   0.104E+02 -.781E+01 0.271E+04   -.106E+02 0.775E+01 -.271E+04   0.757E-01 0.156E+00 -.133E+01   0.368E-02 0.276E-02 0.698E-02
   0.110E+03 -.537E+02 -.247E+04   -.112E+03 0.551E+02 0.247E+04   0.226E+01 -.139E+01 0.108E+01   -.260E-01 0.234E-01 -.293E-01
   0.427E+01 0.266E+02 0.284E+04   -.437E+01 -.267E+02 -.284E+04   0.106E+00 0.231E+00 -.871E+00   -.684E-02 -.451E-02 0.303E-02
   0.122E+03 -.587E+02 -.256E+04   -.124E+03 0.599E+02 0.256E+04   0.190E+01 -.117E+01 0.720E+00   0.173E-01 0.324E-02 -.399E-02
   -.362E+02 0.143E+02 0.282E+04   0.364E+02 -.144E+02 -.282E+04   -.184E+00 0.220E-01 -.124E+01   0.406E-02 0.309E-02 0.633E-03
   0.927E+01 -.183E+02 -.251E+04   -.949E+01 0.183E+02 0.251E+04   0.219E+00 0.144E-01 0.292E+01   0.485E-02 -.181E-01 -.797E-02
   -.568E+02 0.748E+02 0.273E+04   0.568E+02 -.750E+02 -.273E+04   0.142E-01 0.323E+00 -.154E+01   0.117E-01 -.563E-02 0.764E-02
   -.493E+02 0.174E+03 -.249E+04   0.492E+02 -.177E+03 0.249E+04   0.108E+00 0.240E+01 0.681E+00   -.410E-02 -.172E-01 -.300E-01
   0.958E+02 -.480E+02 0.283E+04   -.962E+02 0.483E+02 -.283E+04   0.278E+00 -.244E+00 -.543E+00   -.137E-01 0.157E-02 0.148E-02
   0.783E+02 0.479E+02 -.249E+04   -.784E+02 -.505E+02 0.249E+04   0.116E+00 0.254E+01 0.134E+01   0.804E-02 -.330E-02 -.326E-02
   -.118E+02 0.809E+02 0.774E+03   0.119E+02 -.814E+02 -.774E+03   -.459E-01 0.514E+00 -.353E+00   -.301E-02 -.892E-02 0.783E-03
   0.796E+01 -.764E+01 -.637E+03   -.796E+01 0.758E+01 0.637E+03   0.171E-01 0.700E-01 -.515E-01   -.534E-02 -.595E-03 -.627E-02
   0.129E+02 -.356E+02 0.819E+03   -.129E+02 0.357E+02 -.819E+03   -.573E-01 -.129E+00 -.391E+00   0.405E-02 0.145E-02 -.478E-02
   0.639E+02 -.473E+02 0.226E+04   -.643E+02 0.477E+02 -.226E+04   0.393E+00 -.358E+00 -.241E+01   -.241E-02 0.527E-02 -.189E-02
   0.515E+01 -.653E+02 -.199E+04   -.441E+01 0.658E+02 0.199E+04   -.705E+00 -.514E+00 0.172E+01   -.267E-02 -.137E-01 -.364E-02
   0.192E+02 0.520E+02 -.595E+03   -.192E+02 -.521E+02 0.594E+03   -.100E-01 0.172E+00 0.540E+00   0.680E-02 -.533E-02 -.361E-02
   -.179E+02 0.135E+02 0.225E+04   0.181E+02 -.135E+02 -.225E+04   -.206E+00 -.883E-01 -.289E+01   -.201E-02 -.160E-02 -.139E-03
   0.238E+02 -.224E+02 -.200E+04   -.246E+02 0.231E+02 0.200E+04   0.764E+00 -.621E+00 0.195E+01   -.472E-02 -.296E-02 -.530E-02
   -.578E+02 -.547E+02 0.758E+03   0.578E+02 0.550E+02 -.758E+03   0.450E-01 -.253E+00 -.453E+00   0.265E-02 0.163E-01 0.129E-01
   -.137E+03 -.309E+01 -.632E+03   0.137E+03 0.322E+01 0.632E+03   -.817E+00 -.168E+00 0.344E+00   0.452E-02 0.222E-01 -.163E-02
   0.718E+02 -.477E+02 0.802E+03   -.722E+02 0.478E+02 -.802E+03   0.267E+00 -.142E+00 -.766E+00   -.645E-02 0.103E-01 -.519E-02
   0.643E+02 -.469E+02 -.570E+03   -.648E+02 0.471E+02 0.569E+03   0.546E+00 -.247E+00 0.902E+00   -.178E-01 0.229E-01 -.137E-01
   0.203E+01 -.542E+01 0.223E+04   -.196E+01 0.514E+01 -.223E+04   -.526E-01 0.135E+00 -.281E+01   0.267E-02 0.322E-02 0.151E-02
   -.374E+01 0.178E+02 -.198E+04   0.388E+01 -.177E+02 0.198E+04   -.114E+00 -.522E-01 0.435E+01   -.131E-01 0.872E-02 -.826E-02
   0.436E+02 -.593E+01 0.225E+04   -.438E+02 0.589E+01 -.225E+04   0.160E+00 -.214E+00 -.249E+01   -.508E-02 -.467E-03 0.199E-02
   0.272E+02 -.235E+01 -.207E+04   -.271E+02 0.265E+01 0.207E+04   -.114E+00 -.302E+00 0.417E+01   0.171E-01 -.391E-03 -.434E-02
   -.116E+03 0.435E+02 0.763E+03   0.116E+03 -.439E+02 -.763E+03   -.337E+00 0.286E+00 -.349E+00   0.169E-01 -.892E-02 0.207E-01
   -.108E+02 0.358E+02 0.748E+03   0.109E+02 -.358E+02 -.747E+03   -.172E+00 -.538E-01 -.654E+00   -.653E-02 -.633E-02 0.146E-01
   -.510E+02 0.262E+02 -.585E+03   0.511E+02 -.262E+02 0.586E+03   -.731E-01 -.118E-01 -.507E+00   -.393E-02 0.443E-02 -.736E-02
   -.758E+02 0.210E+02 0.220E+04   0.762E+02 -.211E+02 -.220E+04   -.326E+00 0.162E+00 -.286E+01   0.111E-01 -.232E-02 0.507E-02
   -.136E+03 -.771E+01 -.199E+04   0.137E+03 0.824E+01 0.199E+04   -.105E+01 -.514E+00 0.139E+01   -.169E-02 0.990E-02 -.207E-01
   0.248E+02 -.348E+02 -.595E+03   -.247E+02 0.351E+02 0.594E+03   -.173E-01 -.299E+00 0.474E+00   -.254E-01 0.120E-01 -.126E-01
   0.937E+02 -.709E+02 -.648E+03   -.940E+02 0.713E+02 0.649E+03   0.261E+00 -.433E+00 -.664E+00   0.650E-02 0.281E-02 -.205E-02
   0.561E+02 -.414E+01 0.224E+04   -.562E+02 0.403E+01 -.224E+04   0.211E+00 0.146E+00 -.290E+01   -.906E-02 0.100E-02 0.281E-02
   -.533E+02 -.855E+02 -.202E+04   0.542E+02 0.861E+02 0.202E+04   -.893E+00 -.666E+00 0.154E+01   0.976E-02 0.109E-01 -.398E-02
   0.611E+02 -.397E+02 -.616E+03   -.616E+02 0.399E+02 0.616E+03   0.467E+00 -.279E+00 0.418E+00   0.151E-02 -.696E-02 0.221E-02
   -.470E+02 0.201E+02 -.588E+03   0.473E+02 -.202E+02 0.588E+03   -.361E+00 0.955E-01 0.671E+00   0.145E-01 -.251E-01 0.152E-03
   -.451E+02 0.676E+02 -.589E+03   0.454E+02 -.681E+02 0.588E+03   -.290E+00 0.465E+00 0.852E+00   -.893E-02 -.200E-01 -.500E-02
   0.333E+02 0.123E+02 -.633E+03   -.335E+02 -.122E+02 0.633E+03   0.215E+00 -.406E-01 0.240E+00   -.610E-02 -.307E-02 -.414E-02
   0.249E+01 0.496E+01 0.219E+04   -.244E+01 -.487E+01 -.219E+04   -.209E+00 0.350E-01 -.270E+01   -.169E-02 -.478E-02 0.484E-02
   -.293E+02 0.289E+01 -.201E+04   0.298E+02 -.295E+01 0.200E+04   -.551E+00 0.805E-01 0.456E+01   -.630E-02 0.324E-02 -.119E-01
   0.868E+01 -.409E+02 -.197E+04   -.793E+01 0.399E+02 0.200E+04   -.747E+00 0.104E+01 -.259E+02   0.812E-03 -.818E-02 0.444E-04
   -.659E+01 -.965E+01 -.202E+04   0.476E+01 0.791E+01 0.204E+04   0.182E+01 0.175E+01 -.272E+02   -.716E-03 0.612E-02 0.922E-02
   -.464E+02 -.761E+01 -.203E+04   0.454E+02 0.763E+01 0.205E+04   0.973E+00 -.213E-01 -.266E+02   -.163E-02 0.441E-02 -.861E-02
   -.680E+01 0.315E+01 -.206E+04   0.613E+01 -.314E+01 0.208E+04   0.667E+00 0.703E-02 -.277E+02   0.160E-02 -.316E-02 -.567E-02
   -.382E+01 -.465E+01 0.110E+03   0.471E-13 0.141E-12 0.909E-12   0.381E+01 0.465E+01 -.109E+03   0.123E-01 -.592E-02 -.137E+00

 POSITION                                       TOTAL-FORCE (eV/Angst)
     10.08740      0.00562      4.04934        -0.000898     -0.010350     -0.270092
     -2.53339      8.73512      4.08190        -0.015821      0.072044     -0.105268
      5.03058      0.01686      4.07661        -0.026982     -0.080734     -0.177303
      8.81557      2.19268      4.07950         0.024701     -0.014344     -0.172995
      1.26036      2.17683      4.06343        -0.087030     -0.103546     -0.159951
      2.54307      1.43124      6.11194         0.006449      0.006717     -0.006054
      6.28789      2.21111      4.10570         0.072172      0.002405     -0.288173
      3.80181      0.73423      2.00037         0.097686      0.031584      0.444790
      3.77489      0.73793      8.14491         0.017213     -0.000460     -0.001148
      7.57542      1.47022      6.16924         0.009149     -0.009014     -0.006993
      6.31884      0.74108      2.03384        -0.009745     -0.092149      0.460417
      6.30085      0.75085      8.18409        -0.018259     -0.007620      0.019414
      7.57051      4.36576      4.10283        -0.020321      0.048534     -0.386571
      5.03817      4.36229      4.08171        -0.039366     -0.033958     -0.196341
      3.79202      3.62673      6.09183        -0.025632      0.000710     -0.013384
      2.55462      2.91604      2.00083         0.071460      0.092483      0.411747
      2.49834      2.88940      8.12507         0.012168      0.007044     -0.015851
      6.28239      3.62212      6.12029         0.019530     -0.001290     -0.003696
      7.58585      2.93043      2.03371         0.125491      0.045776      0.468711
      7.53080      2.89326      8.18769        -0.000432     -0.002340     -0.011766
      6.29425      6.55133      4.09263         0.033109     -0.029794     -0.210603
     -2.53998      5.80243      6.10311        -0.015292      0.026817     -0.000543
      3.81389      6.57546      4.07284        -0.081738     -0.015315     -0.076963
      1.26871      5.10416      2.04534        -0.054732      0.106102      0.294899
      1.20777      5.06933      8.18380         0.008937      0.007341      0.017422
      6.29450      5.11374      2.02823        -0.008954      0.080898      0.398072
      6.23323      5.13023      8.18929        -0.037108      0.023769     -0.012322
     -2.53139      7.30304      2.00991         0.018171     -0.120456      0.306780
     -2.56226      7.31089      8.03447        -0.001014     -0.003751     -0.005051
      0.00464      7.28975      2.05722         0.060862      0.062975      0.334688
     -0.02040      7.27838      8.19996         0.003803      0.025274      0.015612
      5.08583      7.28318      2.02757        -0.143660      0.088157      0.386805
      5.03718      7.25268      8.17786         0.016576     -0.007412      0.003889
      7.54405      0.03969      4.10439         0.018856      0.013157     -0.384261
     -0.00382      1.43925      6.04526         0.009941      0.005859     -0.012337
      3.74186      2.14689      4.07389        -0.094614     -0.032570     -0.461518
      1.31001      0.72945      2.02674         0.015539     -0.003305      0.229363
      1.32076      0.75319      8.15155         0.033550      0.000037     -0.003161
      5.09135      1.45296      6.08563        -0.008120      0.006452     -0.021661
      8.82791      0.75063      2.00000         0.007375     -0.068250      0.163897
      8.74866      0.73103      8.19274        -0.018535      0.023314      0.009090
     -0.02406      4.34464      4.11684         0.030519      0.083757     -0.301363
     -1.33759      3.66125      6.10687         0.004207     -0.014930     -0.009062
      2.55702      4.37025      4.05869        -0.082784      0.022722     -0.308925
      1.29224      3.63461      6.08906         0.001422     -0.024185     -0.018259
      0.02215      2.94990      2.02984         0.020335     -0.149647      0.023068
     -0.05299      2.89431      8.04716         0.014525      0.022205     -0.030429
      5.09719      2.93887      2.04043        -0.040896     -0.234312     -0.002252
      5.01809      2.95153      8.08544         0.007920     -0.000647     -0.013677
     -1.32764      6.58396      4.11125         0.004645     -0.137497     -0.281738
      1.24700      6.55932      4.09363        -0.029278     -0.072529     -0.282400
      0.01700      5.82927      6.17294         0.006649     -0.000970      0.008158
     -1.29718      5.12819      2.06865         0.094191      0.100598      0.192467
     -1.26891      5.16333      8.15894         0.011968      0.026522      0.017611
      2.48332      5.81441      6.12823         0.029829      0.017839     -0.000842
      5.04527      5.75843      6.12201        -0.000527      0.008445      0.013029
      3.79261      5.11061      2.02334         0.062565      0.030978     -0.020427
      3.76876      5.13902      8.23476         0.019109     -0.006762     -0.004149
     -3.78584      7.98318      6.06282         0.013050      0.000236      0.003594
     -1.23618      7.97152      6.12854        -0.028408      0.015714      0.009782
      1.25004      8.00896      6.13720         0.025873      0.004471      0.003037
      3.79031      7.99479      6.10792        -0.001412     -0.002738     -0.001550
      2.54183      7.29082      2.05307        -0.149722      0.121384     -0.002109
      2.49917      7.26299      8.12337         0.009844      0.013356      0.000691
     -0.00003      0.07547      9.26324         0.006368      0.004381      0.017556
      2.53527      4.34579      9.32047        -0.005463      0.009346      0.012022
     -2.51395      4.39873      9.27570         0.001073      0.003256      0.047194
      5.03113      0.02185      9.31619        -0.000086      0.018216     -0.032619
    total drift:                               -0.002008     -0.004791      0.005937

  FREE ENERGIE OF THE ION-ELECTRON SYSTEM (eV)
  free  energy   TOTEN  =      -460.00318402 eV

  energy  without entropy=     -460.03770096  energy(sigma->0) =     -460.01468967

 d Force = 0.1684189E-02[-0.119E-03, 0.349E-02]  d Energy = 0.1999833E-02-0.316E-03
 d Force = 0.5142621E+02[ 0.514E+02, 0.514E+02]  d Ewald  = 0.5142620E+02 0.598E-05

 stress matrix after NEB project (eV)
    -31.60599     -1.51813      0.09982
     -1.51813    -34.02220      0.57369
      0.09982      0.57369     -8.79524
  FORCES: max atom, RMS     0.047318    0.018715
  FORCE total and by dimension    0.154329    0.047194
  Stress total and by dimension   47.319049   34.022198
 Conjugate gradient step on ions:
 trial-energy change:   -0.002000  1 .order   -0.001684   -0.003487    0.000119
  (g-gl).g = 0.216E-02      g.g   = 0.210E-02  gl.gl    = 0.678E-02
 g(Force)  = 0.210E-02   g(Stress)= 0.000E+00 ortho     =-0.112E-04
 gamma     =   0.31833
 trial     =   1.66208
 opt step  =   1.62581  (harmonic =   1.60719) maximal distance =0.00585228
 next E    =  -460.003185   (d E  =  -0.00200)

 reached required accuracy - stopping structural energy minimisation
 writing wavefunctions

 total charge

[...]

 magnetization (x)

# of ion       s       p       d       tot
    1       -0.020  -0.051   0.790   0.720
    2       -0.020  -0.042   0.680   0.618
    3       -0.025  -0.045   0.776   0.706
    4       -0.021  -0.046   0.736   0.669
    5       -0.026  -0.054   0.712   0.632
    6       -0.019  -0.047   0.677   0.610
    7       -0.017  -0.039   0.717   0.660
    8       -0.021  -0.032   0.695   0.641
    9       -0.016  -0.024   0.619   0.579
   10       -0.020  -0.044   0.610   0.546
   11       -0.021  -0.032   0.718   0.665
   12       -0.018  -0.019   0.576   0.539
   13       -0.018  -0.037   0.781   0.725
   14       -0.020  -0.046   0.745   0.680
   15       -0.029  -0.060   0.759   0.671
   16       -0.030  -0.048   0.729   0.651
   17       -0.015  -0.025   0.601   0.560
   18       -0.018  -0.037   0.694   0.638
   19       -0.021  -0.035   0.681   0.625
   20       -0.014  -0.019   0.553   0.520
   21       -0.014  -0.034   0.715   0.668
   22       -0.019  -0.043   0.646   0.584
   23       -0.026  -0.057   0.750   0.667
   24       -0.030  -0.045   0.750   0.674
   25       -0.013  -0.017   0.549   0.519
   26       -0.020  -0.030   0.679   0.629
   27       -0.014  -0.025   0.551   0.511
   28       -0.015  -0.028   0.695   0.652
   29       -0.026  -0.016   0.796   0.755
   30       -0.022  -0.033   0.702   0.647
   31       -0.011  -0.012   0.574   0.550
   32       -0.024  -0.041   0.743   0.678
   33       -0.019  -0.030   0.576   0.527
   34       -0.002  -0.028   2.672   2.642
   35       -0.009  -0.039   2.679   2.631
   36        0.004  -0.019   2.742   2.727
   37        0.009  -0.009   2.897   2.896
   38        0.010   0.001   2.703   2.714
   39       -0.001  -0.022   2.699   2.676
   40        0.004  -0.014   2.852   2.843
   41        0.010   0.003   2.588   2.600
   42       -0.006  -0.035   2.538   2.496
   43       -0.002  -0.027   2.617   2.588
   44       -0.005  -0.025   2.700   2.670
   45       -0.001  -0.024   2.554   2.529
   46        0.010  -0.018   2.831   2.822
   47       -0.007  -0.006   2.879   2.865
   48        0.016  -0.011   2.916   2.921
   49        0.011   0.001   2.976   2.987
   50        0.002  -0.018   2.641   2.625
   51       -0.003  -0.027   2.611   2.581
   52       -0.031  -0.057  -0.576  -0.664
   53        0.007  -0.009   2.850   2.848
   54        0.015   0.015   2.626   2.656
   55       -0.009  -0.038   2.401   2.353
   56        0.005  -0.019   2.674   2.660
   57        0.007  -0.010   2.838   2.836
   58        0.006   0.001   2.512   2.519
   59       -0.004  -0.022   2.703   2.677
   60        0.005  -0.014   2.624   2.615
   61       -0.006  -0.032   2.485   2.448
   62       -0.011  -0.038   2.636   2.587
   63        0.007  -0.014   2.828   2.821
   64       -0.002  -0.004   2.887   2.881
   65        0.004   0.106   0.000   0.110
   66        0.003   0.095   0.000   0.098
   67        0.003   0.102   0.000   0.105
   68        0.002   0.105   0.000   0.108
tot         -0.622  -1.347 103.157 101.188