 vasp.5.4.4.18Apr17-6-g9f103f2a35 (build Sep 06 2021 19:49:22) complex

 executed on             LinuxIFC date 2021.12.27  22:11:37

 INCAR:
 POTCAR:    PAW_PBE Ni 02Aug2007
 POTCAR:    PAW_PBE Fe 06Sep2000
 POTCAR:    PAW_PBE Ni 02Aug2007
   VRHFIN =Ni:

   TITEL  = PAW_PBE Ni 02Aug2007
   POMASS =   58.690; ZVAL   =   10.000    mass and valenz
   ENMAX  =  269.532; ENMIN  =  202.149 eV

 POTCAR:    PAW_PBE Fe 06Sep2000
   VRHFIN =Fe:  d7 s1

   TITEL  = PAW_PBE Fe 06Sep2000
   POMASS =   55.847; ZVAL   =    8.000    mass and valenz
   ENMAX  =  267.882; ENMIN  =  200.911 eV

 Optimization of the real space projectors (new method)

 maximal supplied QI-value         = 16.25
 optimisation between [QCUT,QGAM] = [ 11.54, 23.24] = [ 37.28,151.24] Ry
 Optimized for a Real-space Cutoff    1.45 Angstroem

   l    n(q)    QCUT    max X(q) W(low)/X(q) W(high)/X(q)  e(spline)
   2      9    11.539    60.317    0.19E-03    0.47E-04    0.16E-06
   2      9    11.539    55.921    0.19E-03    0.48E-04    0.16E-06
   0     10    11.539    51.690    0.80E-04    0.50E-04    0.24E-06
   0     10    11.539    30.015    0.73E-04    0.45E-04    0.22E-06
   1     10    11.539    18.849    0.87E-04    0.16E-03    0.71E-07
   1     10    11.539    14.624    0.73E-04    0.13E-03    0.64E-07
 Optimization of the real space projectors (new method)

 maximal supplied QI-value         = 16.25
 optimisation between [QCUT,QGAM] = [ 11.54, 23.24] = [ 37.28,151.24] Ry
 Optimized for a Real-space Cutoff    1.53 Angstroem

   l    n(q)    QCUT    max X(q) W(low)/X(q) W(high)/X(q)  e(spline)
   2     10    11.539    80.901    0.11E-03    0.14E-03    0.21E-06
   2     10    11.539    75.754    0.11E-03    0.14E-03    0.22E-06
   0     11    11.539    58.752    0.52E-04    0.18E-04    0.33E-06
   0     11    11.539    30.679    0.44E-04    0.16E-04    0.30E-06
   1     10    11.539    17.977    0.53E-04    0.29E-04    0.13E-06
   1     10    11.539    13.559    0.44E-04    0.25E-04    0.11E-06
  PAW_PBE Ni 02Aug2007                  :
  PAW_PBE Fe 06Sep2000                  :

 POSCAR: POSCAR
  positions in direct lattice
  velocities in cartesian coordinates
 exchange correlation table for  LEXCH =        8
   RHO(1)=    0.500       N(1)  =     2000
   RHO(2)=  100.500       N(2)  =     4000

 ion  position               nearest neighbor table
   1  0.261  0.690  0.814-  13 2.46  14 2.46  13 2.49   7 2.49   6 2.49  10 2.50  15 2.50   3 2.52
                             4 2.53   2 2.53  11 2.54   6 2.54
   2  1.000  0.250  0.752-  13 2.46  14 2.48  10 2.49   6 2.50  11 2.50  14 2.50   7 2.51   4 2.51
                             3 2.52   7 2.52  12 2.52   1 2.53
   3  0.250  0.939  0.561-  14 2.47   6 2.49   7 2.50   8 2.50  12 2.50  12 2.51   9 2.51   2 2.52
                             4 2.52   6 2.52   1 2.52   5 2.53
   4  0.000  0.499  0.501-  16 2.47   8 2.49  12 2.50   6 2.50   7 2.50   7 2.51   2 2.51   9 2.52
                             3 2.52   8 2.52   5 2.52   1 2.53
   5  0.989  0.748  0.248-  15 2.46  16 2.46  15 2.49  12 2.49   8 2.49  11 2.50  13 2.50   4 2.52
                             3 2.53   9 2.53  10 2.54   8 2.54
   6  0.753  0.814  0.686-  13 2.46   3 2.49   1 2.49  12 2.49   2 2.50   8 2.50   4 2.50  14 2.50
                            11 2.51   3 2.52   7 2.52   1 2.54
   7  0.498  0.374  0.625-  14 2.48   1 2.49  13 2.49   8 2.49   3 2.50   4 2.50   2 2.51   4 2.51
                            12 2.51   2 2.52   9 2.52   6 2.52
   8  0.497  0.624  0.377-  15 2.46   4 2.49   5 2.49   7 2.49   9 2.50   6 2.50   3 2.50  16 2.50
                            10 2.51   4 2.52  12 2.52   5 2.54
   9  0.250  0.188  0.310-  15 2.46  16 2.48  11 2.49   8 2.50  10 2.50  16 2.50  12 2.51   3 2.51
                             4 2.52  12 2.52   7 2.52   5 2.53
  10  0.256  0.437  0.062-  15 2.45   2 2.49   9 2.50   1 2.50  16 2.51  14 2.51  13 2.51   8 2.51
                            11 2.52  16 2.53   5 2.54  13 2.57
  11  0.994  0.000  0.001-  13 2.45   9 2.49   2 2.50   5 2.50  14 2.51  16 2.51  15 2.51   6 2.51
                            10 2.52  14 2.53   1 2.54  15 2.57
  12  0.752  0.063  0.437-  16 2.48   5 2.49  15 2.49   6 2.49   4 2.50   3 2.50   9 2.51   3 2.51
                             7 2.51   9 2.52   2 2.52   8 2.52
  13  0.764  0.569  0.931-  11 2.45   6 2.46   1 2.46   2 2.46   1 2.49   7 2.49   5 2.50  10 2.51
                            10 2.57  14 2.58  15 2.59  16 2.59
  14  0.496  0.122  0.870-   1 2.46   3 2.47   2 2.48   7 2.48   6 2.50   2 2.50  11 2.51  10 2.51
                            11 2.53  13 2.58  16 2.59  15 2.59
  15  0.486  0.869  0.132-  10 2.45   8 2.46   5 2.46   9 2.46   5 2.49  12 2.49   1 2.50  11 2.51
                            11 2.57  16 2.58  13 2.59  14 2.59
  16  0.754  0.315  0.193-   5 2.46   4 2.47   9 2.48  12 2.48   8 2.50   9 2.50  10 2.51  11 2.51
                            10 2.53  15 2.58  14 2.59  13 2.59

IMPORTANT INFORMATION: All symmetrisations will be switched off!
NOSYMM: (Re-)initialisation of all symmetry stuff for point group C_1.

Automatic generation of k-mesh.
 generate k-points for:    5    4    3
Space group operators:
 irot       det(A)        alpha          n_x          n_y          n_z        tau_x        tau_y        tau_z
    1     1.000000     0.000001     1.000000     0.000000     0.000000     0.000000     0.000000     0.000000

 Subroutine IBZKPT returns following result:

 Found     31 irreducible k-points:

 Following reciprocal coordinates:
            Coordinates               Weight
  0.000000  0.000000  0.000000      1.000000
  0.200000  0.000000  0.000000      2.000000
  0.400000  0.000000  0.000000      2.000000
  0.000000  0.250000  0.000000      2.000000
  0.200000  0.250000  0.000000      2.000000
  0.400000  0.250000  0.000000      2.000000
 -0.400000  0.250000  0.000000      2.000000
 -0.200000  0.250000  0.000000      2.000000
  0.000000  0.500000  0.000000      1.000000
  0.200000  0.500000  0.000000      2.000000
  0.400000  0.500000  0.000000      2.000000
  0.000000  0.000000  0.333333      2.000000
  0.200000  0.000000  0.333333      2.000000
  0.400000  0.000000  0.333333      2.000000
 -0.400000  0.000000  0.333333      2.000000
 -0.200000  0.000000  0.333333      2.000000
  0.000000  0.250000  0.333333      2.000000
  0.200000  0.250000  0.333333      2.000000
  0.400000  0.250000  0.333333      2.000000
 -0.400000  0.250000  0.333333      2.000000
 -0.200000  0.250000  0.333333      2.000000
  0.000000  0.500000  0.333333      2.000000
  0.200000  0.500000  0.333333      2.000000
  0.400000  0.500000  0.333333      2.000000
 -0.400000  0.500000  0.333333      2.000000
 -0.200000  0.500000  0.333333      2.000000
  0.000000 -0.250000  0.333333      2.000000
  0.200000 -0.250000  0.333333      2.000000
  0.400000 -0.250000  0.333333      2.000000
 -0.400000 -0.250000  0.333333      2.000000
 -0.200000 -0.250000  0.333333      2.000000

 Following cartesian coordinates:
            Coordinates               Weight
 -0.000000 -0.000000 -0.000000      1.000000
  0.050000  0.050000 -0.150000      2.000000
  0.100000  0.100000 -0.300000      2.000000
 -0.015625 -0.140625 -0.078125      2.000000
  0.034375 -0.090625 -0.228125      2.000000
  0.084375 -0.040625 -0.378125      2.000000
 -0.115625 -0.240625  0.221875      2.000000
 -0.065625 -0.190625  0.071875      2.000000
 -0.031250 -0.281250 -0.156250      1.000000
  0.018750 -0.231250 -0.306250      2.000000
  0.068750 -0.181250 -0.456250      2.000000
 -0.145833  0.020833 -0.062500      2.000000
 -0.095833  0.070833 -0.212500      2.000000
 -0.045833  0.120833 -0.362500      2.000000
 -0.245833 -0.079167  0.237500      2.000000
 -0.195833 -0.029167  0.087500      2.000000
 -0.161458 -0.119792 -0.140625      2.000000
 -0.111458 -0.069792 -0.290625      2.000000
 -0.061458 -0.019792 -0.440625      2.000000
 -0.261458 -0.219792  0.159375      2.000000
 -0.211458 -0.169792  0.009375      2.000000
 -0.177083 -0.260417 -0.218750      2.000000
 -0.127083 -0.210417 -0.368750      2.000000
 -0.077083 -0.160417 -0.518750      2.000000
 -0.277083 -0.360417  0.081250      2.000000
 -0.227083 -0.310417 -0.068750      2.000000
 -0.130208  0.161458  0.015625      2.000000
 -0.080208  0.211458 -0.134375      2.000000
 -0.030208  0.261458 -0.284375      2.000000
 -0.230208  0.061458  0.315625      2.000000
 -0.180208  0.111458  0.165625      2.000000

 TETIRR: Found    178 inequivalent tetrahedra from      360

 SYSTEM =  SQS-NiFe
 POSCAR =  POSCAR

 Startparameter for this run:
   NWRITE =      2    write-flag & timer
   PREC   = accura    normal or accurate (medium, high low for compatibility)
   ISTART =      0    job   : 0-new  1-cont  2-samecut
   ICHARG =      2    charge: 1-file 2-atom 10-const
   ISPIN  =      2    spin polarized calculation?
   LNONCOLLINEAR =      F non collinear calculations
   LSORBIT =      F    spin-orbit coupling
   INIWAV =      1    electr: 0-lowe 1-rand  2-diag
   LASPH  =      F    aspherical Exc in radial PAW
   METAGGA=      F    non-selfconsistent MetaGGA calc.

 Electronic Relaxation 1
   ENCUT  =  520.0 eV  38.22 Ry    6.18 a.u.   8.07 10.42 13.98*2*pi/ulx,y,z
   ENINI  =  520.0     initial cutoff
   ENAUG  =  544.6 eV  augmentation charge cutoff
   NELM   =    200;   NELMIN=  2; NELMDL= -5     # of ELM steps
   EDIFF  = 0.1E-05   stopping-criterion for ELM
   LREAL  =      T    real-space projection
   NLSPLINE    = F    spline interpolate recip. space projectors
   LCOMPAT=      F    compatible to vasp.4.4
   GGA_COMPAT  = T    GGA compatible to vasp.4.4-vasp.4.6
   LMAXPAW     = -100 max onsite density
   LMAXMIX     =    2 max onsite mixed and CHGCAR
   VOSKOWN=      0    Vosko Wilk Nusair interpolation
   ROPT   =   -0.00025  -0.00025
 Ionic relaxation
   EDIFFG = -.2E-01   stopping-criterion for IOM
   NSW    =      0    number of steps for IOM
   NBLOCK =      1;   KBLOCK =      1    inner block; outer block
   IBRION =     -1    ionic relax: 0-MD 1-quasi-New 2-CG
   NFREE  =      0    steps in history (QN), initial steepest desc. (CG)
   ISIF   =      2    stress and relaxation
   IWAVPR =     10    prediction:  0-non 1-charg 2-wave 3-comb
   ISYM   =      0    0-nonsym 1-usesym 2-fastsym
   LCORR  =      T    Harris-Foulkes like correction to forces

   POTIM  = 0.5000    time-step for ionic-motion
   TEIN   =    0.0    initial temperature
   TEBEG  =    0.0;   TEEND  =   0.0 temperature during run
   SMASS  =  -3.00    Nose mass-parameter (am)
   estimated Nose-frequenzy (Omega)   =  0.10E-29 period in steps =****** mass=  -0.431E-27a.u.
   SCALEE = 1.0000    scale energy and forces
   NPACO  =    256;   APACO  = 16.0  distance and # of slots for P.C.
   PSTRESS=    0.0 pullay stress

  Mass of Ions in am
   POMASS =  58.69 55.85
  Ionic Valenz
   ZVAL   =  10.00  8.00
  Atomic Wigner-Seitz radii
  virtual crystal weights
   VCA    =   1.00  1.00
   NELECT =     152.0000    total number of electrons
   NUPDOWN=      -1.0000    fix difference up-down

 DOS related values:
   EMIN   =  10.00;   EMAX   =-10.00  energy-range for DOS
   EFERMI =   0.00
[...]
 augmentation part      152.0000000 magnetization      24.0000000

 Free energy of the ion-electron system (eV)
  alpha Z        PSCENC =       816.77350523
  Ewald energy   TEWEN  =    -13459.44393300
  -Hartree energ DENC   =     -3523.38395992
  -exchange      EXHF   =         0.00000000
  -V(xc)+E(xc)   XCENC  =       400.91620169
  PAW double counting   =     13769.03515065   -14601.98969573
  entropy T*S    EENTRO =         0.00000000
  eigenvalues    EBANDS =      2586.70702343
  atomic energy  EATOM  =     15309.30175564
  Solvation  Ediel_sol  =         0.00000000
  free energy    TOTEN  =      1297.91604799 eV

  energy without entropy =     1297.91604799  energy(sigma->0) =     1297.91604799

[...]

 eigenvalue-minimisations  : 13020
 total energy-change (2. order) :-0.1254171E+04  (-0.1188516E+04)
 number of electron     152.0000000 magnetization      24.0000000
 augmentation part      152.0000000 magnetization      24.0000000

[...]

 BZINTS: Fermi energy: 10.565357;152.000000 electrons
         Band energy:1173.278154;  BLOECHL correction: -0.055275

[...]

 Broyden mixing:
  rms(total) = 0.40882E+01    rms(broyden)= 0.40881E+01
  rms(prec ) = 0.53439E+01
  weight for this iteration     100.00

[...]

 BZINTS: Fermi energy:  7.458510;152.000000 electrons
         Band energy: 777.851467;  BLOECHL correction: -0.077706

[...]

 eigenvalues of (default mixing * dielectric matrix)
  average eigenvalue GAMMA=   0.4343
  0.4343

[...]

 eigenvalue-minimisations  : 13727
 total energy-change (2. order) :-0.1396929E-03  (-0.6928248E-04)
 number of electron     151.9999949 magnetization      18.1462813
 augmentation part       90.5669536 magnetization      15.8649190

[...]

 Broyden mixing:
  rms(total) = 0.80914E-03    rms(broyden)= 0.80895E-03
  rms(prec ) = 0.11948E-02
  weight for this iteration     100.00

 eigenvalues of (default mixing * dielectric matrix)
  average eigenvalue GAMMA=   0.6731
  2.3163  2.3163  1.4497  1.4497  0.9696  0.9033  0.9033  0.6379  0.6379  0.6223
  0.5269  0.1061  0.1736  0.1626  0.1626  0.1253  0.1511  0.1414  0.1446  0.1194
  0.1147

[...]

--------------------------------------- Iteration      1(  27)  ---------------------------------------

[...]

 eigenvalue-minimisations  :  7280
 total energy-change (2. order) : 0.9626201E-06  (-0.6731250E-07)
 number of electron     151.9999949 magnetization      18.1258956
 augmentation part       90.5628870 magnetization      15.8416106

 Free energy of the ion-electron system (eV)
  alpha Z        PSCENC =       816.77350523
  Ewald energy   TEWEN  =    -13459.44393300
  -Hartree energ DENC   =     -3211.22244091
  -exchange      EXHF   =         0.00000000
  -V(xc)+E(xc)   XCENC  =       387.36238356
  PAW double counting   =     16554.15250476   -17413.84634368
  entropy T*S    EENTRO =         0.00000000
  eigenvalues    EBANDS =       917.67639422
  atomic energy  EATOM  =     15309.30175564
  Solvation  Ediel_sol  =         0.00000000
  free energy    TOTEN  =       -99.24617418 eV

  energy without entropy =      -99.24617418  energy(sigma->0) =      -99.24617418

 average (electrostatic) potential at core
  the test charge radii are     0.9791  1.0103
  (the norm of the test charge is              1.0000)
       1 -82.9664       2 -82.9128       3 -82.8979       4 -82.8975       5 -82.9665
       6 -82.9156       7 -82.9218       8 -82.9157       9 -82.9130      10 -83.0093
      11 -83.0093      12 -82.9215      13 -41.1694      14 -41.1525      15 -41.1698
      16 -41.1517

 E-fermi :   8.4240     XC(G=0): -13.1408     alpha+bet :-15.5409

 spin component 1

 k-point     1 :       0.0000    0.0000    0.0000
  band No.  band energies     occupation
      1      -0.4931      1.00000
      2       2.1424      1.00000
      3       2.1957      1.00000
      4       3.4335      1.00000
      5       3.6263      1.00000
      6       3.6734      1.00000
      7       4.0000      1.00000
      8       4.0662      1.00000
      9       4.1408      1.00000
     10       4.1634      1.00000
     11       4.2141      1.00000
     12       4.2493      1.00000
     13       4.3403      1.00000
     14       4.3734      1.00000
     15       4.3776      1.00000
     16       4.5733      1.00000
     17       4.5753      1.00000
     18       4.6592      1.00000
     19       4.6857      1.00000
     20       4.7992      1.00000
     21       4.8528      1.00000
     22       4.9397      1.00000
     23       4.9962      1.00000
     24       5.0338      1.00000
     25       5.0616      1.00000
     26       5.1027      1.00000
     27       5.1429      1.00000
     28       5.2087      1.00000
     29       5.2727      1.00000
     30       5.3061      1.00000
     31       5.4958      1.00000
     32       5.5449      1.00000
     33       5.6591      1.00000
     34       5.6815      1.00000
     35       5.7006      1.00000
     36       5.7897      1.00000
     37       5.8355      1.00000
     38       5.8601      1.00000
     39       5.8976      1.00000
     40       5.8979      1.00000
     41       5.9156      1.00000
     42       5.9860      1.00000
     43       5.9962      1.00000
     44       5.9988      1.00000
     45       6.0455      1.00000
     46       6.1026      1.00000
     47       6.1340      1.00000
     48       6.1519      1.00000
     49       6.1612      1.00000
     50       6.4277      1.00000
     51       6.4734      1.00000
     52       6.4967      1.00000
     53       6.5648      1.00000
     54       6.5926      1.00000
     55       6.6886      1.00000
     56       6.7498      1.00000
     57       6.7502      1.00000
     58       6.7860      1.00000
     59       6.7932      1.00000
     60       6.8482      1.00000
[...]
     91      11.7740      0.00000
     92      11.7989      0.00000
     93      13.1154      0.00000
     94      13.1929      0.00000
     95      13.7312      0.00000
     96      13.7830      0.00000
     97      14.1034      0.00000
     98      14.7236      0.00000
     99      14.7339      0.00000
    100      15.8310      0.00000
    101      15.9494      0.00000
    102      16.3482      0.00000
    103      16.4748      0.00000
    104      16.6629      0.00000
    105      16.9799      0.00000

[...]

 spin component 2

[...]

 k-point    31 :      -0.2000   -0.2500    0.3333
  band No.  band energies     occupation
      1       0.4541      1.00000
      2       1.8665      1.00000
      3       2.7609      1.00000
      4       2.9721      1.00000
      5       3.7649      1.00000
      6       4.0444      1.00000
      7       4.3257      1.00000
      8       4.5846      1.00000
      9       4.6905      1.00000
     10       4.8581      1.00000
     11       4.8848      1.00000
     12       4.9165      1.00000
     13       4.9699      1.00000
     14       5.1494      1.00000
     15       5.2175      1.00000
     16       5.3362      1.00000
     17       5.3453      1.00000
     18       5.3574      1.00000
     19       5.4573      1.00000
     20       5.6390      1.00000
     21       5.7144      1.00000
     22       5.7600      1.00000
     23       5.8902      1.00000
     24       5.9767      1.00000
     25       5.9853      1.00000
     26       6.0279      1.00000
     27       6.1125      1.00000
     28       6.1741      1.00000
     29       6.2266      1.00000
     30       6.2578      1.00000
     31       6.3009      1.00000
     32       6.4028      1.00000
     33       6.4766      1.00000
     34       6.5375      1.00000
     35       6.6594      1.00000
     36       6.6817      1.00000
     37       6.7448      1.00000
     38       6.7755      1.00000
     39       6.8818      1.00000
     40       6.8980      1.00000
     41       6.9086      1.00000
     42       6.9329      1.00000
     43       6.9822      1.00000
     44       7.0257      1.00000
     45       7.0806      1.00000
     46       7.1943      1.00000
     47       7.2203      1.00000
     48       7.2641      1.00000
     49       7.2868      1.00000
     50       7.3584      1.00000
     51       7.3760      1.00000
     52       7.4235      1.00000
     53       7.4617      1.00000
     54       7.5069      1.00000
     55       7.6021      1.00000
     56       7.6459      1.00000
     57       7.7398      1.00000
     58       7.8289      1.00000
     59       7.8651      1.00000
     60       7.8700      1.00000
[...]
     91      11.8619      0.00000
     92      11.9984      0.00000
     93      12.6586      0.00000
     94      13.3200      0.00000
     95      13.7359      0.00000
     96      14.8213      0.00000
     97      15.1890      0.00000
     98      15.2847      0.00000
     99      15.3292      0.00000
    100      15.9344      0.00000
    101      16.7218      0.00000
    102      17.0310      0.00000
    103      17.1476      0.00000
    104      17.4872      0.00000
    105      17.8558      0.00000

 soft charge-density along one line, spin component           1
         0         1         2         3         4         5         6         7         8         9
 total charge-density along one line

 soft charge-density along one line, spin component           2
         0         1         2         3         4         5         6         7         8         9
 total charge-density along one line

------------------------ aborting loop because EDIFF is reached ----------------------------------------

 total charge

# of ion       s       p       d       tot
    1        0.507   0.508   8.325   9.340
    2        0.502   0.502   8.326   9.330
    3        0.492   0.485   8.316   9.292
    4        0.492   0.485   8.315   9.292
    5        0.507   0.508   8.326   9.340
    6        0.499   0.495   8.323   9.317
    7        0.498   0.494   8.318   9.310
    8        0.499   0.495   8.323   9.317
    9        0.502   0.502   8.327   9.330
   10        0.509   0.515   8.322   9.346
   11        0.509   0.515   8.322   9.346
   12        0.498   0.494   8.318   9.310
   13        0.475   0.509   6.166   7.150
   14        0.472   0.504   6.162   7.138
   15        0.475   0.509   6.166   7.151
   16        0.472   0.504   6.161   7.137
tot          7.911   8.021 124.515 140.447

 magnetization (x)

[...]

  FORCE on cell =-STRESS in cart. coord.  units (eV):
  Direction    XX          YY          ZZ          XY          YZ          ZX
  Alpha Z   816.77351   816.77351   816.77351
  Ewald   -4530.18030 -4445.76929 -4483.52762    -2.13876    24.54309   -20.19634
  Hartree  1028.20066  1109.03711  1073.96805    -0.75957    23.38809   -20.13110
  E(xc)    -820.31981  -820.35978  -820.26936     0.01041    -0.07368    -0.01452
  Local     204.62164    40.66672   113.66909     2.15297   -48.20480    40.06107
  n-local  -194.29890  -194.79165  -194.22950     0.10638    -0.29199     0.29180
  augment  2269.46975  2268.90959  2268.46257     0.48967     0.28866    -0.01982
  Kinetic  1225.49163  1225.08194  1224.67381     0.16395     0.41453    -0.28582
  Fock        0.00000     0.00000     0.00000     0.00000     0.00000     0.00000
  Total      -0.24183    -0.45186    -0.47945     0.02507     0.06391    -0.29474
  in kB      -2.17428    -4.06265    -4.31069     0.22540     0.57458    -2.64993

 VOLUME and BASIS-vectors are now :
  energy-cutoff  :      520.00
  volume of cell :      178.20
      direct lattice vectors                 reciprocal lattice vectors
     1.772500000  1.772500000 -3.545000000     0.070521862  0.070521862 -0.211565585
     0.000000000 -5.317500000 -1.772500000    -0.017630465 -0.158674189 -0.088152327
    -7.090000000  1.772500000 -1.772500000    -0.123413258  0.017630465 -0.052891396

  length of vectors
     4.341720569  5.605137153  7.520080618     0.233894555  0.182370953  0.135422175

 FORCES acting on ions
    electron-ion (+dipol)            ewald-force                    non-local-force                 convergence-correction
   0.818E+02 -.886E+01 0.541E+02   -.816E+02 0.886E+01 -.541E+02   -.129E+00 -.125E-01 -.196E-01   0.538E-02 0.790E-02 0.133E-01
   0.872E+02 -.568E+01 0.229E+02   -.871E+02 0.565E+01 -.228E+02   -.686E-01 0.376E-01 -.110E+00   0.636E-02 -.123E-01 -.329E-03
   0.177E+02 -.362E+00 0.191E+02   -.177E+02 0.338E+00 -.191E+02   -.321E-02 0.157E-01 -.797E-01   0.326E-02 0.802E-03 0.845E-02
   -.177E+02 0.355E+00 -.192E+02   0.177E+02 -.335E+00 0.191E+02   0.313E-02 -.157E-01 0.793E-01   0.219E-02 0.328E-02 0.515E-02
   -.818E+02 0.887E+01 -.541E+02   0.817E+02 -.889E+01 0.541E+02   0.130E+00 0.123E-01 0.194E-01   -.626E-02 0.102E-01 0.543E-02
   0.751E+02 -.432E+01 0.235E+02   -.749E+02 0.425E+01 -.235E+02   -.207E+00 0.672E-01 -.245E-01   0.785E-02 0.917E-02 0.123E-02
   0.550E+02 -.245E+02 0.278E+02   -.549E+02 0.245E+02 -.278E+02   -.889E-01 0.121E-01 0.169E-01   0.726E-02 -.838E-02 -.191E-02
   -.751E+02 0.433E+01 -.235E+02   0.749E+02 -.427E+01 0.235E+02   0.206E+00 -.680E-01 0.246E-01   -.131E-02 0.120E-01 0.135E-02
   -.872E+02 0.567E+01 -.229E+02   0.871E+02 -.562E+01 0.228E+02   0.686E-01 -.372E-01 0.110E+00   -.456E-02 -.117E-01 -.306E-02
   -.310E+02 -.156E+02 0.918E+01   0.311E+02 0.157E+02 -.922E+01   -.664E-01 -.122E+00 0.502E-01   -.699E-02 0.865E-04 0.260E-02
   0.310E+02 0.156E+02 -.917E+01   -.311E+02 -.157E+02 0.921E+01   0.662E-01 0.120E+00 -.501E-01   -.388E-02 -.268E-02 -.314E-03
   -.550E+02 0.245E+02 -.278E+02   0.549E+02 -.245E+02 0.278E+02   0.896E-01 -.116E-01 -.163E-01   0.210E-02 -.798E-02 -.825E-02
   0.697E+02 -.256E+02 -.124E+02   -.697E+02 0.259E+02 0.126E+02   0.659E-01 -.253E+00 -.172E+00   0.249E-02 0.429E-02 -.179E-02
   0.797E+02 -.682E+01 0.564E+02   -.799E+02 0.680E+01 -.566E+02   0.237E+00 0.291E-01 0.212E+00   0.550E-03 -.395E-02 -.389E-02
   -.696E+02 0.256E+02 0.124E+02   0.697E+02 -.259E+02 -.126E+02   -.652E-01 0.253E+00 0.173E+00   -.396E-02 0.218E-02 -.280E-02
   -.797E+02 0.684E+01 -.564E+02   0.799E+02 -.681E+01 0.566E+02   -.237E+00 -.290E-01 -.212E+00   -.713E-02 -.239E-02 -.830E-02
   -.304E-02 -.176E-03 -.605E-02   -.284E-13 0.355E-13 -.995E-13   0.142E-02 -.114E-02 0.876E-03   0.335E-02 0.528E-03 0.682E-02

 POSITION                                       TOTAL-FORCE (eV/Angst)
     -5.31020     -1.76083     -3.59017         0.000252     -0.002678     -0.005935
     -3.56127      1.77678     -5.32116         0.001859      0.000929     -0.007195
     -3.53800     -3.55239     -3.54480         0.001255     -0.007210     -0.015080
     -3.55199     -1.76513     -1.77272        -0.001451      0.007318      0.014659
     -0.00737     -1.78416     -5.27234        -0.000127      0.002327      0.005705
     -3.52638     -1.77665     -5.32870        -0.004471     -0.002781      0.010744
     -3.54985      0.00059     -3.53863        -0.006423     -0.016328      0.006900
     -1.79109     -1.76831     -3.53374         0.004381      0.002265     -0.010926
     -1.75621     -0.00431     -1.76887        -0.001964     -0.000431      0.007128
      0.01595     -1.76247     -1.79121        -0.010585      0.004607      0.011391
      1.75654      1.76245     -3.52626         0.010405     -0.004685     -0.011290
     -1.76767      1.77189     -3.55136         0.006659      0.016680     -0.006750
     -5.24420     -0.02159     -5.36658         0.004503      0.002312     -0.012412
     -5.28938      1.77167     -3.51586         0.020714      0.002410     -0.005388
     -0.07325     -3.52341     -3.49589        -0.004225     -0.002477      0.012714
     -0.02811      0.00086     -3.57420        -0.020781     -0.002258      0.005737
    total drift:                                0.001737     -0.000788      0.001643

  FREE ENERGIE OF THE ION-ELECTRON SYSTEM (eV)
  free  energy   TOTEN  =       -99.24617418 eV

  energy  without entropy=      -99.24617418  energy(sigma->0) =      -99.24617418

 total charge

[...]

 magnetization (x)

# of ion       s       p       d       tot
    1       -0.018  -0.039   0.669   0.613
    2       -0.014  -0.036   0.639   0.589
    3       -0.010  -0.029   0.650   0.611
    4       -0.010  -0.029   0.650   0.611
    5       -0.018  -0.039   0.669   0.613
    6       -0.012  -0.030   0.643   0.601
    7       -0.013  -0.031   0.654   0.610
    8       -0.012  -0.030   0.643   0.601
    9       -0.014  -0.036   0.638   0.589
   10       -0.020  -0.047   0.701   0.634
   11       -0.020  -0.047   0.701   0.634
   12       -0.013  -0.031   0.654   0.610
   13        0.004  -0.018   2.745   2.731
   14        0.003  -0.019   2.746   2.729
   15        0.004  -0.018   2.744   2.731
   16        0.003  -0.019   2.746   2.730
tot         -0.158  -0.497  18.892  18.237

 BZINTS: Fermi energy:  8.423972;152.000000 electrons
         Band energy: 917.676394;  BLOECHL correction: -0.076577