 vasp.5.4.4.18Apr17-6-g9f103f2a35 (build Dec 15 2018 21:27:11) complex

 executed on             LinuxIFC date 2022.03.06  11:59:14

 INCAR:
 POTCAR:    PAW_PBE Fe 06Sep2000
 POTCAR:    PAW_PBE O 08Apr2002
 POTCAR:    PAW_PBE H 15Jun2001

 POTCAR:    PAW_PBE Fe 06Sep2000
   VRHFIN =Fe:  d7 s1

   TITEL  = PAW_PBE Fe 06Sep2000
   POMASS =   55.847; ZVAL   =    8.000    mass and valenz
   ENMAX  =  267.882; ENMIN  =  200.911 eV

 POTCAR:    PAW_PBE O 08Apr2002
   VRHFIN =O: s2p4

   TITEL  = PAW_PBE O 08Apr2002
   POMASS =   16.000; ZVAL   =    6.000    mass and valenz
   ENMAX  =  400.000; ENMIN  =  300.000 eV

 POTCAR:    PAW_PBE H 15Jun2001
   VRHFIN =H: ultrasoft test

   TITEL  = PAW_PBE H 15Jun2001
   POMASS =    1.000; ZVAL   =    1.000    mass and valenz
   ENMAX  =  250.000; ENMIN  =  200.000 eV

 Optimization of the real space projectors (new method)

 maximal supplied QI-value         = 16.25
 optimisation between [QCUT,QGAM] = [ 11.54, 23.24] = [ 37.28,151.24] Ry
 Optimized for a Real-space Cutoff    1.53 Angstroem

   l    n(q)    QCUT    max X(q) W(low)/X(q) W(high)/X(q)  e(spline)
   2     10    11.539    80.901    0.11E-03    0.14E-03    0.21E-06
   2     10    11.539    75.754    0.11E-03    0.14E-03    0.22E-06
   0     11    11.539    58.752    0.52E-04    0.18E-04    0.33E-06
   0     11    11.539    30.679    0.44E-04    0.16E-04    0.30E-06
   1     10    11.539    17.977    0.53E-04    0.29E-04    0.13E-06
   1     10    11.539    13.559    0.44E-04    0.25E-04    0.11E-06
 Optimization of the real space projectors (new method)

[...]

   l    n(q)    QCUT    max X(q) W(low)/X(q) W(high)/X(q)  e(spline)
   0      8    11.635    20.381    0.10E-03    0.33E-03    0.24E-06
   0      8    11.635    15.268    0.11E-03    0.35E-03    0.26E-06
   1      7    11.635     5.964    0.24E-03    0.31E-03    0.30E-06
   1      7    11.635     5.382    0.22E-03    0.25E-03    0.26E-06
 Optimization of the real space projectors (new method)

 maximal supplied QI-value         = 34.20
 optimisation between [QCUT,QGAM] = [ 11.63, 23.26] = [ 37.87,151.49] Ry
 Optimized for a Real-space Cutoff    1.21 Angstroem

   l    n(q)    QCUT    max X(q) W(low)/X(q) W(high)/X(q)  e(spline)
   0      8    11.629    19.460    0.17E-03    0.34E-03    0.21E-06
   0      8    11.629    12.209    0.16E-03    0.33E-03    0.21E-06
   1      8    11.629     4.655    0.18E-03    0.16E-03    0.26E-06
  PAW_PBE Fe 06Sep2000                  :
  PAW_PBE O 08Apr2002                   :
  PAW_PBE H 15Jun2001                   :

 POSCAR: POSCAR
  positions in direct lattice
  velocities in cartesian coordinates
 exchange correlation table for  LEXCH =        8
   RHO(1)=    0.500       N(1)  =     2000
   RHO(2)=  100.500       N(2)  =     4000

 VTST: version 3.2, (02/03/18)

 CHAIN: initializing optimizer

 OPT: Using VASP Conjugate-Gradient optimizer
 CHAIN: Read ICHAIN            0

 POSCAR: POSCAR
  positions in direct lattice
  velocities in cartesian coordinates

 ion  position               nearest neighbor table
   1  0.087  0.163  0.095-   5 2.48  13 2.48  17 2.48  49 2.48  31 2.48   3 2.48  29 2.87  53 2.87
                            15 2.87  19 2.87
   2  0.088  0.161  0.285-  32 2.38   3 2.44  31 2.46   4 2.46  50 2.47  14 2.47   6 2.49  18 2.49
                            20 2.82  15 2.83  54 2.84  19 2.85  16 2.87  30 2.89
   3  0.212  0.038  0.191-   2 2.44  54 2.44  15 2.48   7 2.48  51 2.48  19 2.48  53 2.48   1 2.48
                             6 2.83  50 2.85  31 2.87  55 2.87  49 2.87   5 2.87
   4  0.205  0.030  0.381-  65 1.87  16 2.41  52 2.42  54 2.46   2 2.46  20 2.54   8 2.55  50 2.77
                            32 2.87  56 2.87   6 2.95
   5  0.337  0.163  0.095-   1 2.48   9 2.48  21 2.48  53 2.48   7 2.48  19 2.48  17 2.87  57 2.87
                             3 2.87  23 2.87
   6  0.338  0.163  0.285-   7 2.44  19 2.44  20 2.45   8 2.45  22 2.48  10 2.48  54 2.49   2 2.49
                            24 2.81  23 2.83   3 2.83  58 2.85  18 2.85   4 2.95
   7  0.462  0.038  0.191-   6 2.44  58 2.44  11 2.48   3 2.48  55 2.48  23 2.48  57 2.48   5 2.48
                            10 2.84  54 2.85  19 2.87  59 2.87  53 2.87   9 2.87
   8  0.460  0.036  0.380-  65 1.88  12 2.43  58 2.45  56 2.45   6 2.45  24 2.48   4 2.55  54 2.83
                            60 2.84  20 2.85  10 2.86
   9  0.587  0.163  0.095-   5 2.48  13 2.48  25 2.48  57 2.48  11 2.48  23 2.48  21 2.87  61 2.87
                             7 2.87  27 2.87
  10  0.588  0.162  0.286-  24 2.42  12 2.44  11 2.46  23 2.46  58 2.47   6 2.48  14 2.49  26 2.49
                             7 2.84  27 2.85  62 2.86   8 2.86  28 2.86  22 2.87
  11  0.712  0.038  0.191-  62 2.44  10 2.46  15 2.48   7 2.48  59 2.48  27 2.48  61 2.48   9 2.48
                            14 2.84  58 2.84  23 2.87  63 2.87  57 2.87  13 2.87
  12  0.707  0.029  0.379-  66 1.85  60 2.38  62 2.43   8 2.43  10 2.44  16 2.54  28 2.57  58 2.74
                            64 2.85  24 2.88  14 2.92
  13  0.837  0.163  0.095-   1 2.48   9 2.48  29 2.48  61 2.48  15 2.48  27 2.48  49 2.87  25 2.87
                            11 2.87  31 2.87
  14  0.838  0.163  0.285-  28 2.44  15 2.44  27 2.45  16 2.47   2 2.47  30 2.48  62 2.49  10 2.49
                            32 2.78  31 2.83  11 2.84  50 2.86  26 2.87  12 2.92
  15  0.962  0.038  0.191-  14 2.44  50 2.46   3 2.48  11 2.48  31 2.48  63 2.48  13 2.48  49 2.48
                             2 2.83  62 2.84  27 2.87  51 2.87   1 2.87  61 2.87
  16  0.961  0.033  0.380-  66 1.86   4 2.41  50 2.43  64 2.44  14 2.47  12 2.54  32 2.55  62 2.82
                            52 2.82  28 2.83   2 2.87
  17  0.087  0.413  0.095-  21 2.48  29 2.48   1 2.48  33 2.48  19 2.48  47 2.48  45 2.87   5 2.87
                            31 2.87  35 2.87
  18  0.088  0.411  0.285-  48 2.42  19 2.44  20 2.45  47 2.46  22 2.47  34 2.48   2 2.49  30 2.49
                            36 2.74  32 2.75  31 2.84  35 2.84   6 2.85  46 2.88
  19  0.212  0.288  0.191-   6 2.44  18 2.44  23 2.48  31 2.48   3 2.48  35 2.48   5 2.48  17 2.48
                            22 2.84   2 2.85   7 2.87  47 2.87  21 2.87   1 2.87
  20  0.211  0.285  0.380-  65 1.87  36 2.43  18 2.45  32 2.45   6 2.45  24 2.49   4 2.54   2 2.82
                            48 2.84   8 2.85  22 2.85
  21  0.337  0.413  0.095-  17 2.48  25 2.48   5 2.48  37 2.48  35 2.48  23 2.48   9 2.87  33 2.87
                            19 2.87  39 2.87
  22  0.337  0.413  0.286-  24 2.43  36 2.43  35 2.46  23 2.46  18 2.47   6 2.48  38 2.49  26 2.49
                            19 2.84  39 2.85  20 2.85  34 2.86  40 2.86  10 2.87
  23  0.462  0.288  0.191-  10 2.46  22 2.46  19 2.48  27 2.48   7 2.48  39 2.48  21 2.48   9 2.48
                             6 2.83  35 2.87  11 2.87  25 2.87   5 2.87  26 2.87
  24  0.461  0.285  0.378-  69 2.02  10 2.42  22 2.43   8 2.48  20 2.49  28 2.55  40 2.55   6 2.81
                            26 2.82  12 2.88  36 2.89
  25  0.587  0.413  0.095-  21 2.48  29 2.48   9 2.48  41 2.48  39 2.48  27 2.48  13 2.87  37 2.87
                            23 2.87  43 2.87
  26  0.588  0.413  0.287-  30 2.47  42 2.47  40 2.48  28 2.48  27 2.48  39 2.48  10 2.49  22 2.49
                            44 2.78  24 2.82  43 2.86  23 2.87  14 2.87  38 2.87
  27  0.712  0.288  0.191-  14 2.45  26 2.48  23 2.48  31 2.48  11 2.48  43 2.48  25 2.48  13 2.48
                            30 2.83  10 2.85  39 2.87  15 2.87   9 2.87  29 2.87
  28  0.718  0.283  0.381-  66 1.90  69 2.05  14 2.44  32 2.46  26 2.48  44 2.48  24 2.55  12 2.57
                            16 2.83  30 2.85  10 2.86  40 2.98
  29  0.837  0.413  0.095-  17 2.48  25 2.48  13 2.48  45 2.48  43 2.48  31 2.48   1 2.87  41 2.87
                            27 2.87  47 2.87
  30  0.837  0.413  0.285-  32 2.38  43 2.44  44 2.44  31 2.45  26 2.47  46 2.48  14 2.48  18 2.49
                            48 2.81  47 2.83  27 2.83  42 2.85  28 2.85   2 2.89
  31  0.962  0.288  0.191-  30 2.45   2 2.46  27 2.48  19 2.48  15 2.48  47 2.48   1 2.48  29 2.48
                            14 2.83  18 2.84  43 2.87   3 2.87  17 2.87  13 2.87
  32  0.964  0.288  0.375-   2 2.38  30 2.38  48 2.43  20 2.45  28 2.46  16 2.55  18 2.75  14 2.78
                            44 2.87   4 2.87
  33  0.087  0.663  0.095-  37 2.48  45 2.48  17 2.48  49 2.48  35 2.48  63 2.48  61 2.87  21 2.87
                            47 2.87  51 2.87
  34  0.087  0.661  0.285-  64 2.40  36 2.43  35 2.44  63 2.45  46 2.48  18 2.48  38 2.49  50 2.49
                            52 2.82  47 2.83  48 2.84  51 2.84  22 2.86  62 2.88
  35  0.212  0.538  0.191-  34 2.44  22 2.46  39 2.48  47 2.48  19 2.48  51 2.48  21 2.48  33 2.48
                            38 2.84  18 2.84  23 2.87  63 2.87  37 2.87  17 2.87
  36  0.204  0.531  0.379-  68 1.85  48 2.38  34 2.43  20 2.43  22 2.43  52 2.54  40 2.57  18 2.74
                            64 2.86  24 2.89  38 2.92
  37  0.337  0.663  0.095-  33 2.48  41 2.48  21 2.48  53 2.48  51 2.48  39 2.48  25 2.87  49 2.87
                            35 2.87  55 2.87
  38  0.337  0.663  0.285-  40 2.44  51 2.45  39 2.45  52 2.47  54 2.48  42 2.49  34 2.49  22 2.49
                            56 2.78  55 2.83  35 2.84  50 2.86  26 2.87  36 2.92
  39  0.462  0.538  0.191-  38 2.45  26 2.48  35 2.48  43 2.48  23 2.48  55 2.48  37 2.48  25 2.48
                            42 2.83  22 2.85  51 2.87  27 2.87  21 2.87  41 2.87
  40  0.458  0.543  0.381-  68 1.90  69 2.05  38 2.44  56 2.46  26 2.48  44 2.48  24 2.55  36 2.57
                            52 2.83  42 2.85  22 2.86  28 2.98
  41  0.587  0.663  0.095-  37 2.48  45 2.48  25 2.48  57 2.48  55 2.48  43 2.48  29 2.87  53 2.87
                            39 2.87  59 2.87
  42  0.588  0.662  0.285-  56 2.38  43 2.44  44 2.45  55 2.45  26 2.47  46 2.48  38 2.49  58 2.49
                            60 2.81  59 2.83  39 2.83  30 2.85  40 2.85  54 2.89
  43  0.712  0.538  0.191-  30 2.44  42 2.44  39 2.48  47 2.48  27 2.48  59 2.48  41 2.48  29 2.48
                            46 2.83  26 2.86  55 2.87  31 2.87  25 2.87  45 2.87
  44  0.711  0.535  0.379-  67 1.94  30 2.44  42 2.45  28 2.48  40 2.48  48 2.50  60 2.51  26 2.78
                            32 2.87  56 2.87  46 2.87
  45  0.837  0.663  0.095-  33 2.48  41 2.48  29 2.48  61 2.48  59 2.48  47 2.48  17 2.87  57 2.87
                            43 2.87  63 2.87
  46  0.837  0.663  0.284-  59 2.43  47 2.43  60 2.47  48 2.47  34 2.48  62 2.48  42 2.48  30 2.48
                            64 2.80  63 2.82  43 2.83  44 2.87  58 2.88  18 2.88
  47  0.962  0.538  0.191-  46 2.43  18 2.46  43 2.48  35 2.48  31 2.48  63 2.48  17 2.48  45 2.48
                            34 2.83  30 2.83  59 2.87  19 2.87  33 2.87  29 2.87
  48  0.963  0.533  0.379-  67 1.86  36 2.38  18 2.42  32 2.43  46 2.47  44 2.50  64 2.52  30 2.81
                            34 2.84  20 2.84  60 2.93
  49  0.087  0.913  0.095-  53 2.48  61 2.48   1 2.48  33 2.48  15 2.48  51 2.48  37 2.87  13 2.87
                             3 2.87  63 2.87
  50  0.087  0.912  0.286-  16 2.43  52 2.43  15 2.46  51 2.46   2 2.47  54 2.47  62 2.49  34 2.49
[...]
   -.136E+01 -.840E+00 0.749E+03   0.140E+01 0.879E+00 -.749E+03   -.130E-01 -.944E-02 -.514E+00   0.700E-03 -.140E-01 -.689E-01
   0.648E+02 0.460E+02 -.162E+04   -.650E+02 -.461E+02 0.162E+04   0.154E+00 0.110E+00 0.464E+01   0.303E-01 -.240E-01 -.889E-02
   0.238E+00 0.193E+00 0.192E+04   -.192E+00 -.158E+00 -.192E+04   -.421E-01 -.298E-01 -.340E+01   0.274E-02 -.126E-02 -.217E-01
   -.263E+00 0.188E-01 -.449E+03   0.448E+00 0.138E+00 0.449E+03   -.208E+00 -.146E+00 -.352E-01   0.136E-01 -.173E-01 -.507E-01
   0.196E+01 -.921E+00 0.749E+03   -.205E+01 0.952E+00 -.749E+03   0.430E-01 0.503E-01 -.417E+00   0.628E-02 -.243E-02 -.656E-01
   -.631E+02 -.463E+02 -.160E+04   0.643E+02 0.467E+02 0.159E+04   -.116E+01 -.405E+00 0.310E+01   -.738E-02 -.280E-01 -.657E-02
   -.886E-01 0.299E+00 0.192E+04   0.425E-01 -.308E+00 -.192E+04   0.457E-01 0.189E-01 -.337E+01   0.221E-02 0.196E-02 -.145E-01
   -.642E+01 0.107E+01 -.445E+03   0.617E+01 -.100E+01 0.444E+03   0.259E+00 -.540E-01 0.600E+00   -.646E-02 -.122E-01 -.692E-01
   -.163E+01 0.826E+00 0.748E+03   0.168E+01 -.796E+00 -.748E+03   -.289E-01 -.393E-01 -.519E+00   -.125E-02 0.207E-02 -.658E-01
   -.266E+02 0.175E+01 -.170E+04   0.273E+02 -.624E+00 0.170E+04   -.750E+00 -.111E+01 0.454E+01   -.268E-01 -.111E-01 -.141E-01
   -.257E+00 -.235E+00 0.192E+04   0.209E+00 0.214E+00 -.192E+04   0.406E-01 0.288E-01 -.336E+01   -.455E-02 0.225E-02 -.264E-01
   0.176E+01 -.529E+01 -.449E+03   -.179E+01 0.507E+01 0.449E+03   0.455E-01 0.207E+00 0.622E+00   -.147E-01 0.653E-02 -.738E-01
   -.167E+00 0.324E+00 0.750E+03   0.220E+00 -.346E+00 -.750E+03   -.418E-01 -.245E-01 -.411E+00   -.717E-02 -.603E-02 -.835E-01
   0.102E+03 0.475E+02 -.166E+04   -.104E+03 -.486E+02 0.165E+04   0.167E+01 0.117E+01 0.270E+01   -.133E-02 -.633E-02 -.301E-02
   0.170E+00 -.161E+00 0.192E+04   -.126E+00 0.154E+00 -.192E+04   -.520E-01 0.282E-02 -.338E+01   0.127E-02 0.461E-02 -.248E-01
   0.299E+01 -.889E+01 -.437E+03   -.261E+01 0.885E+01 0.437E+03   -.409E+00 0.389E-01 0.701E+00   0.189E-01 0.279E-02 -.696E-01
   -.320E+00 0.223E+01 0.749E+03   0.307E+00 -.232E+01 -.749E+03   0.619E-01 0.233E-01 -.417E+00   0.137E-01 -.686E-04 -.772E-01
   -.649E+02 -.440E+02 -.160E+04   0.657E+02 0.450E+02 0.159E+04   -.773E+00 -.960E+00 0.311E+01   0.178E-01 -.169E-01 -.438E-02
   0.231E+00 -.178E+00 0.192E+04   -.256E+00 0.137E+00 -.192E+04   0.333E-01 0.367E-01 -.337E+01   0.407E-02 0.193E-02 -.170E-01
   -.129E+01 -.638E+01 -.445E+03   0.125E+01 0.611E+01 0.444E+03   0.362E-01 0.261E+00 0.599E+00   0.993E-02 0.789E-02 -.715E-01
   0.129E+01 0.954E+00 0.752E+03   -.126E+01 -.927E+00 -.752E+03   -.744E-01 -.531E-01 -.451E+00   0.715E-02 0.924E-03 -.674E-01
   0.388E+02 0.276E+02 -.166E+04   -.394E+02 -.280E+02 0.166E+04   0.578E+00 0.404E+00 0.409E+01   -.663E-02 -.127E-01 -.127E-01
   -.157E+00 -.114E+00 0.192E+04   0.172E+00 0.124E+00 -.192E+04   -.202E-01 -.143E-01 -.333E+01   -.966E-03 -.151E-03 -.162E-01
   -.454E+01 -.323E+01 -.439E+03   0.466E+01 0.330E+01 0.438E+03   -.102E+00 -.727E-01 0.109E+01   -.154E-01 0.665E-02 -.658E-01
   -.175E+01 0.201E+01 0.750E+03   0.177E+01 -.211E+01 -.750E+03   0.527E-01 0.399E-01 -.454E+00   -.132E-01 -.650E-02 -.794E-01
   -.793E+02 0.630E+02 -.167E+04   0.807E+02 -.644E+02 0.167E+04   -.141E+01 0.137E+01 0.253E+01   -.174E-01 -.641E-03 -.642E-02
   -.270E-03 -.242E-01 0.192E+04   0.518E-01 0.586E-01 -.192E+04   -.440E-01 -.313E-01 -.337E+01   -.274E-03 0.191E-02 -.220E-01
   0.556E+00 0.256E+00 -.465E+03   -.345E+00 -.133E+00 0.465E+03   -.204E+00 -.145E+00 -.664E-01   -.798E-02 0.214E-01 -.655E-01
   0.137E+01 -.189E+01 0.748E+03   -.143E+01 0.187E+01 -.748E+03   0.222E-01 0.493E-01 -.377E+00   0.583E-02 0.106E-01 -.851E-01
   0.252E+02 -.117E+03 -.168E+04   -.259E+02 0.119E+03 0.168E+04   0.653E+00 -.186E+01 0.246E+01   0.721E-03 0.156E-01 -.182E-02
   0.163E+00 -.706E-01 0.192E+04   -.188E+00 0.707E-01 -.192E+04   0.314E-01 0.112E-01 -.336E+01   0.851E-03 0.329E-04 -.180E-01
   0.193E+01 -.281E+01 -.457E+03   -.220E+01 0.294E+01 0.456E+03   0.257E+00 -.147E+00 0.649E+00   0.196E-01 0.113E-01 -.723E-01
   0.155E+00 -.183E+01 0.748E+03   -.121E+00 0.185E+01 -.748E+03   -.469E-01 -.153E-01 -.520E+00   0.118E-01 0.820E-02 -.698E-01
   -.743E+01 -.257E+02 -.170E+04   0.870E+01 0.260E+02 0.170E+04   -.129E+01 -.335E+00 0.454E+01   0.222E-01 0.872E-02 -.133E-01
   0.160E+00 -.130E+00 0.192E+04   -.128E+00 0.159E+00 -.192E+04   -.266E-01 -.256E-01 -.342E+01   0.915E-04 -.957E-03 -.126E-01
   0.444E+01 0.273E+01 -.455E+03   -.426E+01 -.256E+01 0.456E+03   -.193E+00 -.191E+00 -.201E+00   0.799E-02 0.703E-02 -.528E-01
   0.124E+01 -.235E+01 0.750E+03   -.134E+01 0.239E+01 -.750E+03   0.551E-01 0.354E-01 -.453E+00   -.735E-02 0.284E-02 -.697E-01
   0.329E+02 -.958E+02 -.167E+04   -.337E+02 0.975E+02 0.167E+04   0.820E+00 -.179E+01 0.253E+01   0.403E-02 0.322E-01 -.979E-02
   -.304E+00 -.191E+00 0.192E+04   0.269E+00 0.149E+00 -.192E+04   0.408E-01 0.283E-01 -.336E+01   -.667E-03 -.884E-03 -.202E-01
   -.436E+01 0.320E+01 -.449E+03   0.417E+01 -.319E+01 0.449E+03   0.211E+00 -.289E-01 0.621E+00   -.192E-01 0.199E-01 -.455E-01
   -.210E+01 -.156E+01 0.748E+03   0.215E+01 0.159E+01 -.748E+03   -.409E-02 -.349E-02 -.565E+00   -.105E-01 0.554E-02 -.792E-01
   -.112E+02 -.800E+01 -.171E+04   0.130E+02 0.920E+01 0.171E+04   -.172E+01 -.122E+01 0.498E+01   -.278E-01 0.282E-01 -.508E-02
   0.748E+01 0.525E+01 -.170E+04   -.617E+01 -.432E+01 0.173E+04   -.130E+01 -.918E+00 -.248E+02   0.162E-01 -.274E-02 0.148E-01
   -.382E+02 0.332E+02 -.170E+04   0.388E+02 -.320E+02 0.172E+04   -.528E+00 -.121E+01 -.252E+02   -.155E-01 0.594E-02 -.145E-01
   -.236E+02 -.167E+02 -.170E+04   0.252E+02 0.178E+02 0.173E+04   -.157E+01 -.111E+01 -.246E+02   0.246E-02 0.158E-01 0.134E-01
   0.185E+02 -.471E+02 -.170E+04   -.172E+02 0.472E+02 0.173E+04   -.133E+01 -.935E-01 -.252E+02   0.197E-01 0.131E-02 0.286E-01
   -.115E+02 -.813E+01 -.165E+04   0.148E+02 0.105E+02 0.162E+04   -.332E+01 -.241E+01 0.209E+02   0.169E-01 -.165E-01 0.398E-02
   0.374E+01 0.277E+01 -.341E+03   -.416E+01 -.307E+01 0.349E+03   0.412E+00 0.304E+00 -.820E+01   0.127E-02 -.162E-02 0.193E-02
   0.110E+02 0.783E+01 0.901E+02   -.329E-12 -.716E-12 0.455E-12   -.110E+02 -.784E+01 -.875E+02   0.260E-01 -.156E-02 -.255E+01

 POSITION                                       TOTAL-FORCE (eV/Angst)
      1.40594      1.52230      2.00000         0.013290      0.003327      0.323418
      1.40558      1.50247      6.00700        -0.001533      0.006856      0.016979
      2.23340      0.35210      4.02685        -0.033961     -0.025176     -0.382160
      2.14182      0.28647      8.02430        -0.008795     -0.006429     -0.001968
      3.88832      1.52230      2.00000        -0.008569     -0.006023      0.294261
      3.89013      1.52301      6.00104         0.000459      0.002002      0.008848
      4.71578      0.35210      4.02685         0.045983     -0.048270     -0.346783
      4.68098      0.33341      8.00008         0.033829     -0.013459     -0.019646
      6.37069      1.52230      2.00000         0.002454      0.001029      0.328686
      6.37075      1.51903      6.01932        -0.003966     -0.010092      0.013842
      7.19815      0.35210      4.02685        -0.046913      0.020978     -0.359897
      7.11385      0.27015      7.98453         0.008887     -0.009588      0.006487
      8.85307      1.52230      2.00000        -0.001901     -0.006685      0.331190
      8.85654      1.52351      6.00614         0.003031     -0.009176      0.006643
      9.68053      0.35210      4.02685         0.027018     -0.047154     -0.242828
      9.65391      0.30617      8.00380         0.020727     -0.010431     -0.011242
      2.23340      3.86271      2.00000         0.004341      0.004610      0.374109
      2.24098      3.85404      6.01434        -0.013888     -0.001218      0.020851
      3.06086      2.69251      4.02685        -0.028658      0.057710     -0.345971
      3.03315      2.66496      8.00036        -0.006761      0.039600     -0.021679
      4.71578      3.86271      2.00000         0.001853      0.002073      0.328569
      4.71331      3.86341      6.01883        -0.014234     -0.000585      0.018880
      5.54324      2.69251      4.02685         0.024690      0.015431     -0.297197
      5.51793      2.67410      7.97118        -0.002143     -0.003166      0.000662
      7.19815      3.86271      2.00000         0.006572      0.004507      0.368485
      7.20597      3.86794      6.04389        -0.011892     -0.008194      0.003668
      8.02561      2.69251      4.02685        -0.040334      0.079441     -0.268521
      8.05658      2.64822      8.02436         0.011071      0.005923     -0.018155
      9.68053      3.86271      2.00000         0.002144      0.012246      0.326002
      9.67560      3.86638      6.00438         0.000391      0.000956      0.015584
     10.50799      2.69251      4.02685         0.014108     -0.007069     -0.384014
     10.52085      2.69286      7.90106        -0.011888      0.001480     -0.005143
      3.06086      6.20311      2.00000        -0.011548      0.009469      0.316816
      3.05858      6.19345      6.00453        -0.001511     -0.008492      0.014085
      3.88832      5.03291      4.02685         0.005004     -0.052158     -0.361250
      3.78331      4.98028      7.98393        -0.020132      0.000274     -0.003089
      5.54324      6.20311      2.00000        -0.006828      0.000309      0.331072
      5.54551      6.20544      6.00584        -0.008648      0.006391      0.009143
      6.37069      5.03291      4.02685         0.062317     -0.065997     -0.269724
      6.33862      5.07570      8.02429         0.014461      0.010421     -0.017668
      8.02561      6.20311      2.00000         0.012406     -0.002223      0.326058
      8.02714      6.19677      6.00453         0.002774      0.000609      0.013284
      8.85307      5.03291      4.02685        -0.033911     -0.024209     -0.375462
      8.82436      5.01325      7.99420        -0.026716     -0.022212     -0.006016
     10.50799      6.20311      2.00000        -0.005841     -0.004268      0.282049
     10.50726      6.20237      5.99084         0.002887      0.003326      0.008234
     11.33544      5.03291      4.02685         0.061149     -0.072918     -0.351919
     11.32435      4.99133      7.98088         0.000483     -0.013762      0.006166
      3.88832      8.54352      2.00000         0.007267      0.005133      0.330215
      3.88540      8.54114      6.02207        -0.001631     -0.001745      0.004847
      4.71578      7.37332      4.02685        -0.035150      0.040139     -0.243708
      4.66389      7.36201      8.00406        -0.006651      0.032741     -0.016837
      6.37069      8.54352      2.00000         0.007605      0.011528      0.323466
      6.35200      8.54903      6.00681         0.004397     -0.001687      0.018016
      7.19815      7.37332      4.02685        -0.001311      0.013787     -0.384971
      7.20151      7.38422      7.90147         0.003514     -0.011017     -0.007172
      8.85307      8.54352      2.00000         0.005876      0.002443      0.374309
      8.84732      8.55253      6.01438        -0.004468     -0.008242      0.018244
      9.68053      7.37332      4.02685        -0.047927      0.080362     -0.352473
      9.63713      7.37672      7.98065        -0.010847      0.002176      0.008627
     11.33544      8.54352      2.00000         0.005136     -0.014252      0.316872
     11.32573      8.54440      6.00479        -0.008505      0.000929      0.010638
     12.16290      7.37332      4.02685         0.038968      0.027330     -0.377260
     12.15481      7.36766      7.92649         0.010437      0.006322     -0.014702
      3.41337      1.18538      9.08713         0.021736      0.016473      0.009605
      8.36798      1.10201      9.08495         0.008227      0.004776     -0.007026
     10.14790      5.94865      9.06451        -0.036161     -0.025204     -0.008078
      4.98336      5.88362      9.08445         0.015206      0.012722      0.007534
      6.75642      3.54957      9.32146        -0.008640     -0.006665      0.007722
      6.70561      3.51209     10.29413         0.001164      0.001938     -0.021603
    total drift:                               -0.002797     -0.010339      0.001657

  FREE ENERGIE OF THE ION-ELECTRON SYSTEM (eV)
  free  energy   TOTEN  =      -557.09199967 eV

  energy  without entropy=     -557.17193774  energy(sigma->0) =     -557.11864570

 d Force = 0.5783567E-03[ 0.514E-03, 0.642E-03]  d Energy = 0.2986889E-03 0.280E-03
 d Force =-0.4275663E+01[-0.427E+01,-0.428E+01]  d Ewald  =-0.4275662E+01-0.676E-06

 stress matrix after NEB project (eV)
    -39.45487      2.74882     -0.11220
      2.74882    -41.38831     -0.04634
     -0.11220     -0.04634    -11.14381
  FORCES: max atom, RMS     0.045649    0.016241
  FORCE total and by dimension    0.135878    0.039600
  Stress total and by dimension   58.386686   41.388311
 Conjugate gradient step on ions:
 trial-energy change:   -0.000299  1 .order   -0.000578   -0.000642   -0.000514
  (g-gl).g = 0.127E-02      g.g   = 0.126E-02  gl.gl    = 0.258E-02
 g(Force)  = 0.126E-02   g(Stress)= 0.000E+00 ortho     =-0.154E-03
 gamma     =   0.49069
 trial     =   0.54355
 opt step  =   2.17420  (harmonic =   2.72733) maximal distance =0.00699200
 next E    =  -557.093313   (d E  =  -0.00161)

 reached required accuracy - stopping structural energy minimisation
 writing wavefunctions

 total charge

[...]

 magnetization (x)

# of ion       s       p       d       tot
    1       -0.005  -0.014   2.672   2.653
    2       -0.016  -0.053   2.429   2.360
    3       -0.015  -0.055   2.465   2.395
    4       -0.004  -0.019   2.237   2.215
    5       -0.004  -0.014   2.693   2.675
    6       -0.017  -0.057   2.528   2.454
    7       -0.016  -0.059   2.446   2.371
    8       -0.000  -0.010   2.313   2.303
    9       -0.005  -0.014   2.677   2.658
   10       -0.014  -0.053   2.462   2.395
   11       -0.015  -0.057   2.487   2.415
   12       -0.005  -0.021   2.134   2.109
   13       -0.005  -0.015   2.690   2.670
   14       -0.015  -0.055   2.452   2.382
   15       -0.016  -0.059   2.427   2.352
   16        0.001  -0.009   2.264   2.255
   17       -0.005  -0.016   2.671   2.650
   18       -0.010  -0.056   2.327   2.262
   19       -0.016  -0.059   2.446   2.371
   20       -0.000  -0.010   2.314   2.303
   21       -0.005  -0.014   2.677   2.658
   22       -0.014  -0.053   2.461   2.395
   23       -0.015  -0.057   2.461   2.388
   24       -0.007  -0.006   2.860   2.846
   25       -0.005  -0.014   2.671   2.651
   26       -0.009  -0.056   2.402   2.337
   27       -0.017  -0.059   2.458   2.382
   28       -0.003  -0.009   2.257   2.245
   29       -0.005  -0.014   2.677   2.658
   30       -0.015  -0.053   2.416   2.348
   31       -0.015  -0.056   2.462   2.391
   32       -0.005  -0.012   2.750   2.733
   33       -0.005  -0.014   2.677   2.658
   34       -0.015  -0.053   2.427   2.359
   35       -0.015  -0.057   2.487   2.415
   36       -0.005  -0.021   2.128   2.102
   37       -0.005  -0.015   2.690   2.670
   38       -0.015  -0.055   2.452   2.382
   39       -0.017  -0.059   2.458   2.382
   40       -0.003  -0.009   2.257   2.245
   41       -0.005  -0.014   2.677   2.658
   42       -0.015  -0.053   2.416   2.348
   43       -0.015  -0.057   2.471   2.399
   44       -0.004  -0.018   2.448   2.426
   45       -0.003  -0.014   2.699   2.682
   46       -0.016  -0.057   2.520   2.447
   47       -0.017  -0.059   2.444   2.368
   48       -0.001  -0.013   2.252   2.238
   49       -0.004  -0.016   2.687   2.667
   50       -0.010  -0.055   2.298   2.233
   51       -0.016  -0.059   2.427   2.352
   52        0.001  -0.009   2.263   2.255
   53       -0.005  -0.014   2.672   2.653
   54       -0.016  -0.053   2.428   2.360
   55       -0.015  -0.056   2.462   2.391
   56       -0.005  -0.012   2.749   2.732
   57       -0.005  -0.016   2.671   2.650
   58       -0.010  -0.056   2.327   2.261
   59       -0.017  -0.059   2.444   2.368
   60       -0.001  -0.014   2.252   2.237
   61       -0.005  -0.014   2.676   2.658
   62       -0.015  -0.053   2.428   2.359
   63       -0.015  -0.056   2.452   2.382
   64       -0.005  -0.010   2.772   2.758
   65        0.003   0.029   0.000   0.032
   66        0.003   0.007   0.000   0.009
   67        0.003   0.028   0.000   0.031
   68        0.003   0.006   0.000   0.009
   69        0.010   0.066   0.000   0.076
   70        0.006   0.001   0.000   0.007
tot         -0.568  -2.090 159.197 156.539