 vasp.5.4.4.18Apr17-6-g9f103f2a35 (build Dec 15 2018 21:27:11) complex

 executed on             LinuxIFC date 2022.02.23  04:05:11

 INCAR:
 POTCAR:    PAW_PBE Fe 06Sep2000
 POTCAR:    PAW_PBE Ni 02Aug2007
 POTCAR:    PAW_PBE O 08Apr2002

 POTCAR:    PAW_PBE Fe 06Sep2000
   VRHFIN =Fe:  d7 s1

   TITEL  = PAW_PBE Fe 06Sep2000
   POMASS =   55.847; ZVAL   =    8.000    mass and valenz
   ENMAX  =  267.882; ENMIN  =  200.911 eV

 POTCAR:    PAW_PBE Ni 02Aug2007
   VRHFIN =Ni:

   TITEL  = PAW_PBE Ni 02Aug2007
   POMASS =   58.690; ZVAL   =   10.000    mass and valenz
   ENMAX  =  269.532; ENMIN  =  202.149 eV

 POTCAR:    PAW_PBE O 08Apr2002
   VRHFIN =O: s2p4

   TITEL  = PAW_PBE O 08Apr2002
   POMASS =   16.000; ZVAL   =    6.000    mass and valenz
   ENMAX  =  400.000; ENMIN  =  300.000 eV

 Optimization of the real space projectors (new method)

 maximal supplied QI-value         = 16.25
 optimisation between [QCUT,QGAM] = [ 11.54, 23.24] = [ 37.28,151.24] Ry
 Optimized for a Real-space Cutoff    1.53 Angstroem

   l    n(q)    QCUT    max X(q) W(low)/X(q) W(high)/X(q)  e(spline)
   2     10    11.539    80.901    0.11E-03    0.14E-03    0.21E-06
   2     10    11.539    75.754    0.11E-03    0.14E-03    0.22E-06
   0     11    11.539    58.752    0.52E-04    0.18E-04    0.33E-06
   0     11    11.539    30.679    0.44E-04    0.16E-04    0.30E-06
   1     10    11.539    17.977    0.53E-04    0.29E-04    0.13E-06
   1     10    11.539    13.559    0.44E-04    0.25E-04    0.11E-06
 Optimization of the real space projectors (new method)

[...]

   l    n(q)    QCUT    max X(q) W(low)/X(q) W(high)/X(q)  e(spline)
   2      9    11.539    60.317    0.19E-03    0.47E-04    0.16E-06
   2      9    11.539    55.921    0.19E-03    0.48E-04    0.16E-06
   0     10    11.539    51.690    0.80E-04    0.50E-04    0.24E-06
   0     10    11.539    30.015    0.73E-04    0.45E-04    0.22E-06
   1     10    11.539    18.849    0.87E-04    0.16E-03    0.71E-07
   1     10    11.539    14.624    0.73E-04    0.13E-03    0.64E-07
 Optimization of the real space projectors (new method)

 maximal supplied QI-value         = 24.76
 optimisation between [QCUT,QGAM] = [ 11.64, 23.27] = [ 37.91,151.63] Ry
 Optimized for a Real-space Cutoff    1.14 Angstroem

   l    n(q)    QCUT    max X(q) W(low)/X(q) W(high)/X(q)  e(spline)
   0      8    11.635    20.381    0.10E-03    0.33E-03    0.24E-06
   0      8    11.635    15.268    0.11E-03    0.35E-03    0.26E-06
   1      7    11.635     5.964    0.24E-03    0.31E-03    0.30E-06
   1      7    11.635     5.382    0.22E-03    0.25E-03    0.26E-06
  PAW_PBE Fe 06Sep2000                  :
  PAW_PBE Ni 02Aug2007                  :
  PAW_PBE O 08Apr2002                   :

 POSCAR: POSCAR
  positions in direct lattice
  velocities in cartesian coordinates
 exchange correlation table for  LEXCH =        8
   RHO(1)=    0.500       N(1)  =     2000
   RHO(2)=  100.500       N(2)  =     4000

 VTST: version 3.2, (02/03/18)

 CHAIN: initializing optimizer

 OPT: Using VASP Conjugate-Gradient optimizer
 CHAIN: Read ICHAIN            0

 POSCAR: POSCAR
  positions in direct lattice
  velocities in cartesian coordinates

 ion  position               nearest neighbor table
   1  0.002  0.999  0.097-   9 2.45  29 2.50  49 2.51  64 2.51  44 2.53   7 2.53  51 2.54  38 2.55
                             5 2.60
   2  0.001  0.003  0.381-  11 2.38  57 2.46   8 2.49   6 2.51  52 2.51  48 2.52  30 2.53  39 2.55
                            50 2.57
   3  0.499  0.996  0.096-   5 2.47  62 2.50  34 2.52  31 2.52  49 2.53  45 2.55  55 2.55  12 2.56
                            53 2.58
   4  0.504  0.001  0.379-  15 2.41  13 2.43  63 2.48  56 2.52   6 2.52  54 2.52  32 2.53  35 2.53
                            50 2.54
   5  0.743  0.996  0.094-   3 2.47  34 2.47  62 2.52  38 2.53  55 2.54  64 2.58  14 2.58  51 2.59
                             1 2.60
   6  0.749  0.996  0.388-  68 1.81  35 2.46  39 2.50   2 2.51   4 2.52  47 2.54  56 2.57  15 2.58
                            52 2.60  57 2.61
   7  0.249  0.253  0.097-  22 2.43   9 2.44  51 2.49  18 2.52  20 2.53   1 2.53  53 2.54  10 2.55
                            49 2.58
   8  0.249  0.247  0.385-  66 1.81   2 2.49  21 2.50  11 2.50  52 2.50  19 2.51  50 2.53  54 2.55
                            59 2.55  26 2.55
   9  0.089  0.161  0.191-  10 2.41   7 2.44   1 2.45  44 2.47  51 2.52  59 2.53  57 2.53  64 2.54
                            11 2.55  22 2.55  58 2.62  14 2.68
  10  0.330  0.166  0.195-   9 2.41  26 2.45  13 2.48  22 2.48  45 2.48  44 2.49  11 2.51   7 2.55
                            12 2.57  49 2.58  53 2.59  25 2.59
  11  0.162  0.075  0.291-   2 2.38  44 2.49   8 2.50  57 2.51  10 2.51  46 2.52  13 2.52  50 2.54
                             9 2.55  48 2.55  59 2.56  26 2.60
  12  0.583  0.166  0.194-  14 2.45  15 2.47  13 2.49  28 2.50  27 2.50  62 2.52  45 2.54  55 2.55
                             3 2.56  10 2.57  53 2.58  25 2.58
  13  0.414  0.082  0.289-   4 2.43  10 2.48  45 2.48  12 2.49  11 2.52  54 2.53  63 2.54  28 2.55
                            50 2.55  15 2.56  26 2.56  46 2.58
  14  0.827  0.167  0.193-  60 2.43  15 2.45  12 2.45  57 2.51  62 2.51  55 2.51  27 2.53  58 2.56
                            51 2.56   5 2.58  64 2.59   9 2.68
  15  0.667  0.082  0.288-   4 2.41  14 2.45  47 2.47  12 2.47  62 2.50  60 2.52  28 2.52  57 2.52
                            56 2.53  63 2.55  13 2.56   6 2.58
  16  0.003  0.511  0.095-  31 2.44  29 2.45  23 2.48  33 2.51  58 2.57  18 2.58  27 2.59  55 2.60
                            51 2.63
  17  0.000  0.503  0.374-  37 2.39  43 2.41  60 2.41  24 2.53  30 2.53  56 2.55  32 2.55  52 2.56
                            19 2.57
  18  0.256  0.506  0.097-  36 2.40  31 2.45  34 2.47  22 2.47  20 2.48   7 2.52  58 2.53  51 2.58
                            16 2.58
  19  0.249  0.495  0.383-  67 1.85  52 2.46  21 2.49  59 2.51   8 2.51  61 2.53  37 2.56  17 2.57
                            35 2.60  32 2.61
  20  0.500  0.503  0.098-  22 2.41  40 2.43  34 2.48  18 2.48  38 2.50  25 2.53   7 2.53  53 2.54
                            23 2.58
  21  0.495  0.495  0.377-  26 2.37  42 2.44  61 2.44  19 2.49   8 2.50  54 2.52  35 2.55  24 2.56
                            39 2.57
  22  0.339  0.416  0.189-  20 2.41   7 2.43  40 2.46  18 2.47  25 2.48  10 2.48  26 2.48  61 2.52
                            36 2.53   9 2.55  59 2.55  58 2.60
  23  0.757  0.508  0.096-  29 2.40  41 2.46  16 2.48  27 2.48  38 2.48  25 2.56  55 2.57  20 2.58
                            53 2.60
  24  0.745  0.491  0.387-  65 1.86  54 2.45  56 2.46  28 2.49  17 2.53  21 2.56  39 2.59  43 2.59
                            30 2.63  42 2.64
  25  0.586  0.422  0.194-  42 2.41  40 2.45  41 2.46  27 2.46  26 2.46  22 2.48  20 2.53  28 2.53
                            23 2.56  53 2.58  12 2.58  10 2.59
  26  0.416  0.336  0.287-  21 2.37  10 2.45  25 2.46  22 2.48  59 2.49  61 2.52  42 2.52   8 2.55
                            13 2.56  28 2.57  54 2.59  11 2.60
  27  0.827  0.417  0.192-  41 2.45  25 2.46  23 2.48  43 2.48  60 2.50  28 2.50  12 2.50  55 2.51
                            14 2.53  58 2.59  16 2.59  33 2.60
  28  0.668  0.332  0.290-  56 2.48  24 2.49  12 2.50  54 2.50  27 2.50  60 2.50  43 2.51  15 2.52
                            25 2.53  13 2.55  26 2.57  42 2.58
  29  0.992  0.747  0.096-  23 2.40  16 2.45  38 2.48  41 2.50   1 2.50  33 2.54  44 2.56  49 2.57
                            31 2.63
  30  0.003  0.754  0.386-  65 1.87  46 2.45  50 2.49  32 2.52   2 2.53  39 2.53  17 2.53  48 2.56
                            43 2.59  24 2.63
  31  0.251  0.746  0.097-  16 2.44  36 2.44  18 2.45  33 2.49  34 2.52   3 2.52  45 2.55  49 2.56
                            29 2.63
  32  0.251  0.754  0.386-  67 1.87  50 2.47  46 2.47  30 2.52   4 2.53  63 2.55  17 2.55  35 2.59
                            19 2.61  37 2.61
  33  0.086  0.671  0.192-  37 2.48  45 2.48  44 2.48  31 2.49  46 2.50  16 2.51  36 2.52  43 2.52
                            41 2.52  29 2.54  58 2.55  27 2.60
  34  0.502  0.749  0.098-  18 2.47   5 2.47  40 2.48  36 2.48  20 2.48  62 2.49  38 2.49  31 2.52
                             3 2.52
  35  0.506  0.752  0.385-  67 1.87   6 2.46  47 2.46  39 2.48   4 2.53  21 2.55  61 2.57  63 2.57
                            32 2.59  19 2.60
  36  0.330  0.661  0.190-  18 2.40  31 2.44  37 2.47  61 2.47  34 2.48  58 2.49  33 2.52  63 2.52
                            22 2.53  40 2.53  62 2.56  45 2.62
  37  0.169  0.583  0.285-  17 2.39  58 2.45  36 2.47  33 2.48  61 2.48  63 2.49  46 2.50  59 2.54
                            60 2.55  19 2.56  32 2.61  43 2.63
  38  0.748  0.749  0.094-  29 2.48  23 2.48  34 2.49  20 2.50   5 2.53  40 2.54  64 2.55   1 2.55
                            41 2.58
  39  0.750  0.749  0.381-  65 1.86  48 2.42  35 2.48  42 2.49  47 2.49   6 2.50  30 2.53   2 2.55
                            21 2.57  24 2.59
  40  0.580  0.661  0.192-  20 2.43  25 2.45  42 2.45  22 2.46  34 2.48  61 2.48  36 2.53  38 2.54
                            41 2.54  62 2.56  64 2.57  47 2.57
  41  0.832  0.662  0.193-  43 2.39  27 2.45  42 2.45  25 2.46  23 2.46  48 2.47  29 2.50  33 2.52
                            40 2.54  64 2.54  44 2.57  38 2.58
  42  0.665  0.585  0.286-  25 2.41  48 2.44  21 2.44  40 2.45  41 2.45  43 2.47  39 2.49  26 2.52
                            61 2.53  47 2.54  28 2.58  24 2.64
  43  0.910  0.586  0.286-  41 2.39  17 2.41  48 2.45  42 2.47  27 2.48  46 2.49  28 2.51  33 2.52
                            24 2.59  30 2.59  60 2.60  37 2.63
  44  0.086  0.916  0.194-  45 2.43   9 2.47  33 2.48  11 2.49  10 2.49  46 2.52   1 2.53  49 2.53
                            64 2.54  48 2.54  29 2.56  41 2.57
  45  0.327  0.919  0.193-  44 2.43  33 2.48  10 2.48  13 2.48  49 2.49  63 2.51  12 2.54  31 2.55
                            46 2.55   3 2.55  62 2.59  36 2.62
  46  0.161  0.826  0.291-  30 2.45  32 2.47  43 2.49  37 2.50  33 2.50  11 2.52  44 2.52  63 2.54
                            45 2.55  50 2.56  48 2.57  13 2.58
  47  0.663  0.835  0.288-  35 2.46  15 2.47  62 2.48  39 2.49  63 2.49  48 2.51  61 2.53  64 2.54
                             6 2.54  57 2.54  42 2.54  40 2.57
  48  0.906  0.826  0.288-  39 2.42  42 2.44  43 2.45  64 2.47  41 2.47  47 2.51   2 2.52  44 2.54
                            57 2.54  11 2.55  30 2.56  46 2.57
  49  0.249  0.998  0.096-  45 2.49   1 2.51  44 2.53   3 2.53  53 2.55  31 2.56  29 2.57  10 2.58
                             7 2.58
  50  0.252  0.998  0.388-  66 1.89  32 2.47  30 2.49   8 2.53  54 2.54  11 2.54   4 2.54  13 2.55
                            46 2.56   2 2.57
  51  0.001  0.250  0.097-   7 2.49  58 2.51   9 2.52   1 2.54  55 2.55  14 2.56  18 2.58   5 2.59
                            16 2.63
  52  0.005  0.254  0.382-  68 1.88  19 2.46  59 2.47   8 2.50   2 2.51  57 2.52  60 2.53  56 2.55
                            17 2.56   6 2.60
  53  0.499  0.252  0.095-  55 2.53   7 2.54  20 2.54  49 2.55   3 2.58  25 2.58  12 2.58  10 2.59
                            23 2.60
[...]
   0.340E-01 0.471E+02 -.192E+04   0.146E+00 -.490E+02 0.192E+04   -.164E+00 0.185E+01 0.197E+01   -.579E-02 -.118E-01 0.165E-01
   -.177E+02 -.760E+01 0.210E+04   0.175E+02 0.757E+01 -.210E+04   0.737E+00 -.459E+00 -.156E+01   0.142E-01 0.168E-01 -.918E-02
   -.259E+02 -.432E+02 -.189E+04   0.254E+02 0.432E+02 0.188E+04   0.445E+00 -.221E-01 0.333E+01   -.714E-02 -.149E-01 0.117E-01
   -.335E+02 0.145E+02 0.854E+03   0.331E+02 -.149E+02 -.854E+03   -.374E+00 0.711E+00 0.296E+00   0.144E-01 0.101E-01 -.240E-01
   0.201E+02 -.149E+02 0.209E+04   -.201E+02 0.148E+02 -.209E+04   -.181E+00 -.545E+00 -.162E+01   -.162E-01 0.586E-02 -.180E-01
   0.513E+01 0.243E+02 -.190E+04   -.490E+01 -.260E+02 0.190E+04   -.242E+00 0.179E+01 0.270E+01   0.604E-02 0.318E-02 0.188E-01
   -.131E+02 0.174E+02 0.764E+03   0.135E+02 -.176E+02 -.765E+03   -.520E-01 0.112E+00 -.582E+00   -.925E-02 0.244E-01 -.393E-01
   -.486E+02 0.226E+02 -.507E+03   0.486E+02 -.233E+02 0.507E+03   0.728E-02 0.707E+00 0.208E+00   -.151E-01 0.314E-02 0.451E-02
   0.309E+02 -.388E+02 0.804E+03   -.307E+02 0.390E+02 -.804E+03   0.160E+00 -.289E-01 -.344E+00   -.124E-01 -.308E-02 -.375E-01
   0.510E+02 -.317E+02 -.535E+03   -.510E+02 0.316E+02 0.536E+03   0.128E-01 0.936E-01 -.603E+00   -.250E-02 0.465E-02 0.269E-03
   -.670E+01 -.581E+01 0.209E+04   0.670E+01 0.579E+01 -.209E+04   0.380E+00 0.264E+00 -.195E+01   -.337E-01 -.197E-02 -.230E-01
   -.723E+02 -.170E+02 -.189E+04   0.745E+02 0.178E+02 0.189E+04   -.222E+01 -.734E+00 0.241E+01   -.416E-02 0.968E-02 0.178E-01
   0.123E+02 -.708E+01 0.210E+04   -.124E+02 0.698E+01 -.210E+04   -.302E+00 0.430E+00 -.164E+01   0.112E-01 0.362E-02 -.302E-01
   0.929E+02 -.159E+02 -.191E+04   -.949E+02 0.166E+02 0.191E+04   0.200E+01 -.651E+00 0.233E+01   -.369E-02 -.650E-02 0.276E-01
   0.336E+02 -.241E+02 0.795E+03   -.336E+02 0.241E+02 -.794E+03   0.629E-01 -.439E+00 -.562E+00   -.173E-01 -.357E-02 -.266E-01
   0.854E+00 0.100E+02 0.212E+04   -.799E+00 -.966E+01 -.212E+04   -.199E-01 -.173E+00 -.526E+00   0.315E-01 0.236E-02 -.600E-02
   -.971E+02 -.378E+02 -.192E+04   0.986E+02 0.393E+02 0.192E+04   -.156E+01 -.149E+01 0.212E+01   -.696E-02 -.894E-02 0.719E-02
   0.187E+02 -.264E+02 0.855E+03   -.188E+02 0.266E+02 -.854E+03   -.325E-01 0.122E+00 -.455E+00   0.408E-01 0.423E-02 -.237E-01
   0.551E+02 -.589E+02 -.538E+03   -.553E+02 0.591E+02 0.538E+03   0.175E+00 -.203E+00 -.156E+00   0.765E-02 -.914E-02 0.180E-01
   -.818E+01 0.814E+01 0.213E+04   0.820E+01 -.783E+01 -.213E+04   0.277E-01 -.160E+00 -.177E+01   -.751E-02 -.272E-02 0.523E-03
   0.763E+02 -.267E+02 -.185E+04   -.782E+02 0.277E+02 0.185E+04   0.191E+01 -.109E+01 0.122E+01   0.161E-01 0.115E-01 -.920E-03
   -.361E+02 0.487E+01 0.823E+03   0.363E+02 -.466E+01 -.822E+03   -.700E-01 0.334E-01 -.642E+00   0.119E-01 0.171E-01 -.330E-01
   -.142E+02 -.742E+01 0.791E+03   0.144E+02 0.771E+01 -.792E+03   -.157E+00 -.181E+00 0.291E+00   -.352E-01 0.123E-01 -.338E-01
   -.320E+02 0.714E+01 -.539E+03   0.322E+02 -.677E+01 0.539E+03   -.159E+00 -.378E+00 0.510E+00   -.973E-02 0.184E-01 -.223E-01
   0.107E+02 -.334E+02 -.530E+03   -.106E+02 0.332E+02 0.530E+03   -.271E-01 0.230E+00 0.174E+00   -.146E-01 0.577E-02 0.737E-02
   -.112E+02 0.327E+02 0.755E+03   0.110E+02 -.327E+02 -.755E+03   -.265E+00 -.596E+00 -.791E-01   -.397E-01 0.723E-02 -.226E-01
   0.186E+02 0.222E+01 0.780E+03   -.186E+02 -.240E+01 -.780E+03   0.647E+00 -.212E+00 -.580E-01   0.135E-01 0.816E-02 -.282E-01
   0.307E+02 0.683E+01 -.577E+03   -.305E+02 -.659E+01 0.577E+03   -.253E+00 -.228E+00 -.355E+00   -.173E-01 0.489E-02 0.218E-01
   -.355E+02 0.303E+02 -.596E+03   0.352E+02 -.302E+02 0.596E+03   0.261E+00 -.158E+00 -.688E+00   0.166E-01 0.458E-02 -.348E-01
   -.443E+02 0.259E+02 -.560E+03   0.442E+02 -.263E+02 0.559E+03   0.113E+00 0.406E+00 0.266E+00   -.209E-01 0.181E-01 -.712E-02
   0.104E+02 0.301E+02 0.262E+04   -.105E+02 -.304E+02 -.261E+04   0.151E+00 0.450E+00 -.107E+01   -.138E-01 0.115E-01 -.321E-01
   0.100E+02 0.177E+03 -.239E+04   -.100E+02 -.180E+03 0.238E+04   0.337E-01 0.292E+01 0.134E+01   -.241E-01 0.728E-02 0.306E-01
   -.125E+02 0.355E+01 0.264E+04   0.127E+02 -.379E+01 -.264E+04   -.495E+00 0.266E+00 -.830E+00   -.273E-02 -.222E-01 -.201E-01
   -.120E+03 -.794E+02 -.239E+04   0.123E+03 0.809E+02 0.239E+04   -.239E+01 -.152E+01 0.640E+00   0.180E-01 -.796E-02 0.118E-01
   0.145E+02 -.286E+02 0.260E+04   -.144E+02 0.288E+02 -.260E+04   0.495E-01 -.126E+00 -.105E+01   0.515E-02 0.214E-01 -.303E-01
   -.912E+02 -.904E+02 -.234E+04   0.935E+02 0.917E+02 0.234E+04   -.230E+01 -.137E+01 0.111E+01   -.231E-01 -.481E-03 0.242E-01
   0.105E+02 -.183E+02 0.263E+04   -.106E+02 0.186E+02 -.263E+04   -.480E-01 -.140E+00 -.135E+01   0.130E-02 -.203E-02 -.266E-01
   0.127E+03 -.772E+02 -.239E+04   -.129E+03 0.785E+02 0.238E+04   0.237E+01 -.131E+01 0.112E+01   0.155E-01 0.987E-02 0.207E-01
   -.239E+02 0.810E+02 -.658E+03   0.237E+02 -.811E+02 0.657E+03   0.132E+00 0.119E+00 0.658E+00   0.155E-01 -.192E-01 -.856E-02
   0.162E+02 -.372E+02 0.105E+04   -.162E+02 0.369E+02 -.105E+04   -.641E-01 0.661E-01 -.105E+00   0.807E-02 -.306E-01 -.310E-01
   -.748E+02 0.230E+01 -.653E+03   0.747E+02 -.244E+01 0.654E+03   0.294E-01 0.178E+00 -.706E+00   0.775E-02 -.250E-01 0.163E-01
   0.728E+02 -.620E+02 -.620E+03   -.730E+02 0.621E+02 0.619E+03   0.268E+00 -.896E-01 0.858E+00   0.145E-01 -.182E-01 0.830E-02
   -.483E+02 -.108E+02 -.668E+03   0.485E+02 0.109E+02 0.668E+03   -.151E+00 -.482E-01 0.452E+00   0.191E-01 0.249E-02 -.175E-01
   0.259E+02 0.745E+01 0.102E+04   -.258E+02 -.747E+01 -.102E+04   -.301E+00 -.652E-02 -.105E+00   0.440E-01 -.136E-01 -.320E-01
   0.526E+02 -.183E+02 -.680E+03   -.530E+02 0.186E+02 0.679E+03   0.334E+00 -.315E+00 0.384E+00   0.298E-01 -.177E-02 -.342E-02
   -.372E+02 0.450E+02 0.103E+04   0.371E+02 -.449E+02 -.103E+04   -.185E+00 0.212E-01 0.639E-01   -.136E-01 -.129E-01 -.237E-01
   0.634E+01 -.228E+01 -.187E+04   -.697E+01 0.233E+01 0.190E+04   0.639E+00 -.505E-01 -.266E+02   0.870E-02 0.970E-02 0.643E-02
   0.223E+02 -.229E+02 -.194E+04   -.205E+02 0.228E+02 0.196E+04   -.180E+01 0.661E-02 -.274E+02   -.992E-02 -.402E-02 -.515E-02
   -.400E+00 0.260E+01 -.188E+04   0.535E+00 -.284E+01 0.191E+04   -.132E+00 0.260E+00 -.262E+02   -.192E-01 0.436E-02 0.296E-02
   -.625E+01 0.220E+02 -.194E+04   0.667E+01 -.192E+02 0.197E+04   -.447E+00 -.281E+01 -.267E+02   0.147E-01 0.190E-01 0.290E-03
   0.200E+01 0.299E+01 0.102E+03   0.411E-12 -.338E-12 -.273E-11   -.202E+01 -.299E+01 -.102E+03   0.148E-01 0.804E-02 -.522E+00

 POSITION                                       TOTAL-FORCE (eV/Angst)
     -5.03208      8.74992      2.05921        -0.085840     -0.080039     -0.206209
     -0.00837      0.02451      8.10292        -0.008486     -0.014055     -0.004099
      0.00574      8.72607      2.04466        -0.266343      0.424606      0.127913
      5.08811      0.00831      8.06084         0.010375      0.002775     -0.003970
      2.47665      8.72592      2.00821         0.359780      0.208475      0.051677
      2.54330      8.71778      8.24442        -0.000780     -0.018218     -0.030445
      1.23891      2.21748      2.05880         0.544299     -0.065113     -0.291241
      1.27123      2.16445      8.18620        -0.006843      0.005200      0.000884
      0.08074      1.41419      4.05321        -1.020178      0.449273      0.400342
      2.49330      1.45451      4.14829         0.795780      0.136529     -0.740193
      1.25574      0.66084      6.18527         0.006855      0.010870      0.003413
      5.06166      1.44930      4.13498        -0.399388      0.341902     -0.448867
      3.77473      0.71397      6.14217        -0.011757     -0.006945      0.014390
      7.51557      1.45812      4.11001         0.535302     -0.043025     -0.684048
      6.33340      0.71758      6.12760        -0.012313     -0.003483     -0.002358
     -2.55062      4.47399      2.00995        -0.157021     -0.710699      0.261755
     -2.54424      4.40814      7.94931        -0.009521     -0.009910     -0.018936
      0.03014      4.42905      2.07020        -0.288437     -0.498228     -0.144847
      0.01830      4.33622      8.15431         0.013347     -0.010069      0.006698
      2.50847      4.40516      2.07435         0.487089     -0.458460     -0.298193
      2.50583      4.33361      8.00622        -0.000106      0.017787     -0.012572
      1.32139      3.64145      4.02771        -0.762890      0.352805      0.332527
      5.08382      4.44890      2.04815        -0.237201     -0.555367      0.716671
      5.05130      4.29981      8.22240        -0.008762      0.010319     -0.020347
      3.79377      3.69800      4.13071         0.304530     -0.041674     -0.746915
      2.51085      2.93921      6.09247         0.011915      0.000980     -0.006189
      6.25293      3.64956      4.08305         0.321434      0.147244     -0.175145
      5.07861      2.90617      6.16099         0.010544     -0.002741     -0.004195
      6.25194      6.54167      2.03547         0.337138      0.226373      0.085128
     -3.78628      6.60303      8.20831        -0.001115      0.009670     -0.020532
     -1.23133      6.52951      2.06361        -0.374998      0.318692     -0.085623
     -1.27071      6.60365      8.20037        -0.013709      0.011778     -0.012147
     -2.52172      5.87475      4.08745         0.077306     -0.417624     -0.002935
      1.28426      6.55944      2.07409         0.063722      0.179621      0.071885
      1.31854      6.58547      8.18216         0.003428     -0.002112     -0.016441
     -0.00626      5.79145      4.04458        -0.026960      0.388689      0.261522
     -1.24296      5.10448      6.06511         0.008399     -0.005975      0.009437
      3.77628      6.55571      2.00000         0.041366      0.147807      0.283246
      3.79513      6.55772      8.10996        -0.001200     -0.006263      0.007708
      2.52387      5.78801      4.07310         0.206196      0.245225      0.355232
      5.06734      5.79704      4.10517        -0.020347      0.114541     -0.287965
      3.76812      5.12490      6.07481         0.015808      0.014104     -0.001156
      6.24008      5.12921      6.07741         0.018086      0.006203     -0.009652
     -3.76296      8.02446      4.11956        -0.446703     -0.657901      0.093053
     -1.33707      8.05044      4.10308         0.711172     -0.389717      0.136435
     -2.55140      7.23344      6.18766         0.001509      0.011551     -0.011119
      2.47848      7.31470      6.13470         0.008322     -0.011639     -0.003946
      4.98887      7.23391      6.11601         0.013552      0.006745      0.003863
     -2.52690      8.74056      2.03303         0.060084      0.122271      0.185744
     -2.50162      8.73894      8.26099        -0.001214     -0.002049      0.003213
     -1.24953      2.18697      2.05404        -0.264577     -0.002109      0.409557
     -1.23033      2.22100      8.12006         0.011503     -0.003618      0.015860
      3.77687      2.20348      2.02824         0.124330      0.103323      0.646704
      3.81832      2.18434      8.19540         0.015382      0.007241      0.013634
      6.31052      2.19548      2.03586        -0.142312      0.137739      0.307865
      6.33129      2.19280      8.18426        -0.007260      0.003195      0.004922
      8.85707      0.72719      6.09449        -0.012056      0.009635     -0.002376
     -1.27338      3.65234      4.08853        -0.012356     -0.187053     -0.314463
      0.02183      2.90709      6.09449        -0.010103      0.008470     -0.022385
      7.57733      2.90593      6.06495        -0.010216     -0.003682     -0.003805
      1.23354      5.11275      6.07557         0.001958      0.006067      0.001279
      1.25660      8.01495      4.09194        -0.237501     -0.040706     -0.012000
     -0.01340      7.27014      6.08738        -0.006822     -0.004306     -0.009632
      3.80919      8.00883      4.09175        -0.262215      0.055307     -0.078997
      5.02691      5.82405      9.29741         0.018838      0.008398     -0.005331
      2.48010      1.51525      9.36084         0.009021     -0.006535     -0.017095
      0.02133      5.80668      9.28636        -0.016133      0.017937     -0.031925
      7.65284      1.42696      9.30116        -0.004706     -0.010029     -0.024264
    total drift:                                0.003791      0.008329     -0.010874

  FREE ENERGIE OF THE ION-ELECTRON SYSTEM (eV)
  free  energy   TOTEN  =      -499.69831417 eV

  energy  without entropy=     -499.72370877  energy(sigma->0) =     -499.70677904

 d Force = 0.1256276E-02[ 0.910E-03, 0.160E-02]  d Energy = 0.1168823E-02 0.875E-04
 d Force =-0.1496731E+02[-0.150E+02,-0.150E+02]  d Ewald  =-0.1496731E+02-0.289E-05

 stress matrix after NEB project (eV)
    -36.43640      0.93894     -0.20798
      0.93894    -37.70336      1.06067
     -0.20798      1.06067     -5.74244
  FORCES: max atom, RMS     0.040015    0.014020
  FORCE total and by dimension    0.115612    0.031925
  Stress total and by dimension   52.784751   37.703360
 Steepest descent step on ions:
 trial-energy change:   -0.001169  1 .order   -0.001256   -0.001603   -0.000910
  (g-gl).g = 0.160E-02      g.g   = 0.160E-02  gl.gl    = 0.000E+00
 g(Force)  = 0.160E-02   g(Stress)= 0.000E+00 ortho     = 0.000E+00
 gamma     =   0.00000
 trial     =   1.00000
 opt step  =   2.31206  (harmonic =   2.31206) maximal distance =0.00547849
 next E    =  -499.698998   (d E  =  -0.00185)

 reached required accuracy - stopping structural energy minimisation
 writing wavefunctions

 total charge

[...]

 magnetization (x)

# of ion       s       p       d       tot
    1        0.002  -0.008   2.705   2.698
    2        0.012   0.011   2.729   2.752
    3        0.005  -0.003   2.729   2.731
    4        0.003  -0.001   2.862   2.864
    5        0.004  -0.012   2.782   2.774
    6        0.008   0.002   2.181   2.191
    7       -0.004  -0.012   2.657   2.642
    8        0.003  -0.011   2.320   2.312
    9       -0.005  -0.034   2.575   2.536
   10       -0.003  -0.021   2.382   2.358
   11       -0.007  -0.029   2.417   2.381
   12       -0.035  -0.059  -1.997  -2.092
   13       -0.005  -0.024   2.367   2.338
   14        0.008  -0.006   2.587   2.589
   15       -0.001  -0.019   2.422   2.402
   16        0.012  -0.001   2.613   2.624
   17        0.002  -0.009   2.808   2.802
   18        0.001  -0.016   2.467   2.452
   19        0.007  -0.003   2.451   2.456
   20        0.005  -0.004   2.374   2.375
   21        0.012   0.003   2.634   2.649
   22       -0.002  -0.016   2.054   2.036
   23       -0.030  -0.025   0.008  -0.047
   24        0.010   0.007   2.523   2.539
   25       -0.024  -0.036  -1.838  -1.899
   26       -0.004  -0.025   2.309   2.281
   27        0.005  -0.002   2.077   2.080
   28        0.009  -0.001   2.187   2.196
   29        0.002  -0.019   2.434   2.418
   30        0.006   0.000   2.356   2.363
   31        0.003  -0.015   2.366   2.353
   32        0.007  -0.007   2.471   2.471
   33       -0.040  -0.073  -2.003  -2.115
   34        0.002  -0.027   2.368   2.343
   35        0.010   0.001   2.190   2.201
   36       -0.031  -0.047  -2.065  -2.143
   37        0.006  -0.017   2.377   2.367
   38        0.005  -0.013   2.515   2.508
   39       -0.029  -0.045  -2.149  -2.222
   40       -0.024  -0.044  -1.725  -1.792
   41        0.008   0.005   1.860   1.873
   42       -0.019  -0.027  -1.563  -1.609
   43       -0.004  -0.029   1.840   1.807
   44       -0.003  -0.027   2.152   2.123
   45        0.001  -0.009   2.130   2.123
   46       -0.001  -0.013   1.938   1.923
   47        0.016   0.010   2.317   2.343
   48       -0.033  -0.050  -2.033  -2.116
   49       -0.030  -0.037   0.714   0.646
   50       -0.023  -0.030   0.615   0.562
   51       -0.032  -0.031   0.675   0.612
   52       -0.017  -0.020   0.524   0.487
   53       -0.015  -0.017   0.361   0.329
   54       -0.020  -0.024   0.593   0.548
   55       -0.021  -0.015   0.475   0.438
   56       -0.016  -0.024   0.549   0.509
   57       -0.022  -0.044   0.647   0.581
   58       -0.015  -0.036   0.469   0.418
   59       -0.016  -0.029   0.587   0.542
   60       -0.022  -0.043   0.746   0.681
   61       -0.018  -0.037   0.380   0.326
   62       -0.015  -0.038   0.505   0.452
   63       -0.027  -0.056   0.629   0.545
   64       -0.018  -0.039   0.433   0.376
   65        0.001   0.027   0.000   0.028
   66        0.002   0.081   0.000   0.083
   67        0.003   0.084   0.000   0.087
   68        0.003   0.076   0.000   0.079
tot         -0.446  -1.046  87.060  85.568