 vasp.5.4.4.18Apr17-6-g9f103f2a35 (build Sep 06 2021 19:49:22) complex

 executed on             LinuxIFC date 2021.12.28  19:37:08

 INCAR:
 POTCAR:    PAW_PBE Ni 02Aug2007
 POTCAR:    PAW_PBE Fe 06Sep2000
 POTCAR:    PAW_PBE Ni 02Aug2007
   VRHFIN =Ni:

   TITEL  = PAW_PBE Ni 02Aug2007
   POMASS =   58.690; ZVAL   =   10.000    mass and valenz
   ENMAX  =  269.532; ENMIN  =  202.149 eV

 POTCAR:    PAW_PBE Fe 06Sep2000
   VRHFIN =Fe:  d7 s1

   TITEL  = PAW_PBE Fe 06Sep2000
   POMASS =   55.847; ZVAL   =    8.000    mass and valenz
   ENMAX  =  267.882; ENMIN  =  200.911 eV

 Optimization of the real space projectors (new method)

 maximal supplied QI-value         = 16.25
 optimisation between [QCUT,QGAM] = [ 11.54, 23.24] = [ 37.28,151.24] Ry
 Optimized for a Real-space Cutoff    1.45 Angstroem

   l    n(q)    QCUT    max X(q) W(low)/X(q) W(high)/X(q)  e(spline)
   2      9    11.539    60.317    0.19E-03    0.47E-04    0.16E-06
   2      9    11.539    55.921    0.19E-03    0.48E-04    0.16E-06
   0     10    11.539    51.690    0.80E-04    0.50E-04    0.24E-06
   0     10    11.539    30.015    0.73E-04    0.45E-04    0.22E-06
   1     10    11.539    18.849    0.87E-04    0.16E-03    0.71E-07
   1     10    11.539    14.624    0.73E-04    0.13E-03    0.64E-07
 Optimization of the real space projectors (new method)

 maximal supplied QI-value         = 16.25
 optimisation between [QCUT,QGAM] = [ 11.54, 23.24] = [ 37.28,151.24] Ry
 Optimized for a Real-space Cutoff    1.53 Angstroem

   l    n(q)    QCUT    max X(q) W(low)/X(q) W(high)/X(q)  e(spline)
   2     10    11.539    80.901    0.11E-03    0.14E-03    0.21E-06
   2     10    11.539    75.754    0.11E-03    0.14E-03    0.22E-06
   0     11    11.539    58.752    0.52E-04    0.18E-04    0.33E-06
   0     11    11.539    30.679    0.44E-04    0.16E-04    0.30E-06
   1     10    11.539    17.977    0.53E-04    0.29E-04    0.13E-06
   1     10    11.539    13.559    0.44E-04    0.25E-04    0.11E-06
  PAW_PBE Ni 02Aug2007                  :
  PAW_PBE Fe 06Sep2000                  :

 POSCAR: POSCAR
  positions in direct lattice
  velocities in cartesian coordinates
 exchange correlation table for  LEXCH =        8
   RHO(1)=    0.500       N(1)  =     2000
   RHO(2)=  100.500       N(2)  =     4000

 ion  position               nearest neighbor table
   1  0.001  0.750  0.500-  14 2.48   5 2.51   5 2.51   9 2.52   9 2.52   4 2.53   4 2.53  10 2.56
                            10 2.56   6 2.57
   2  0.249  0.502  0.500-  10 2.50  10 2.50  12 2.52  12 2.52  13 2.52  13 2.52  11 2.53   9 2.54
                             9 2.54   3 2.54
   3  0.503  0.751  0.500-  16 2.46  13 2.47  13 2.47  10 2.50  10 2.50   7 2.53   7 2.53   5 2.53
                             5 2.53   2 2.54
   4  0.997  0.999  0.000-   5 2.49  14 2.50  14 2.50  11 2.50  11 2.50   1 2.53   1 2.53  16 2.54
                            16 2.54  12 2.58
   5  0.753  0.749  1.000-   4 2.49  13 2.50   1 2.51   1 2.51   6 2.52   6 2.52   3 2.53   3 2.53
                            16 2.54  16 2.54
   6  0.745  0.497  0.500-  15 2.48  13 2.51  13 2.51   5 2.52   5 2.52   8 2.52   8 2.52   9 2.53
                             9 2.53   1 2.57
   7  0.497  1.000  1.000-  10 2.47  15 2.48  15 2.48  16 2.51  16 2.51   3 2.53   3 2.53  14 2.55
                            14 2.55   8 2.57
   8  0.754  0.251  0.000-   9 2.48  15 2.50  15 2.50  11 2.51  11 2.51   6 2.52   6 2.52  16 2.53
                            16 2.53   7 2.57
   9  0.997  0.500  1.000-   8 2.48   1 2.52   1 2.52   6 2.53   6 2.53   2 2.54   2 2.54  11 2.55
                            11 2.55  10 2.58
  10  0.256  0.750  1.000-   7 2.47   3 2.50   3 2.50   2 2.50   2 2.50  14 2.55  14 2.55   1 2.56
                             1 2.56   9 2.58
  11  0.002  0.248  0.500-   4 2.50   4 2.50  12 2.51  12 2.51   8 2.51   8 2.51   2 2.53   9 2.55
                             9 2.55  16 2.57
  12  0.252  0.254  0.000-  11 2.51  11 2.51   2 2.52   2 2.52  13 2.54  14 2.54  14 2.54  15 2.57
                            15 2.57   4 2.58
  13  0.501  0.508  0.000-   3 2.47   3 2.47   5 2.50   6 2.51   6 2.51   2 2.52   2 2.52  12 2.54
                            15 2.62  15 2.62
  14  0.243  0.999  0.500-   1 2.48   4 2.50   4 2.50  12 2.54  12 2.54  10 2.55  10 2.55   7 2.55
                             7 2.55  15 2.58
  15  0.506  0.246  0.500-   6 2.48   7 2.48   7 2.48   8 2.50   8 2.50  12 2.57  12 2.57  14 2.58
                            13 2.62  13 2.62
  16  0.744  0.997  0.500-   3 2.46   7 2.51   7 2.51   8 2.53   8 2.53   5 2.54   5 2.54   4 2.54
                             4 2.54  11 2.57

IMPORTANT INFORMATION: All symmetrisations will be switched off!
NOSYMM: (Re-)initialisation of all symmetry stuff for point group C_1.

Automatic generation of k-mesh.
 generate k-points for:    4    4   13
Space group operators:
 irot       det(A)        alpha          n_x          n_y          n_z        tau_x        tau_y        tau_z
    1     1.000000     0.000000     1.000000     0.000000     0.000000     0.000000     0.000000     0.000000

 Subroutine IBZKPT returns following result:

 Found    106 irreducible k-points:

 Following reciprocal coordinates:
            Coordinates               Weight
  0.000000  0.000000  0.000000      1.000000
  0.250000  0.000000  0.000000      2.000000
  0.500000  0.000000  0.000000      1.000000
  0.000000  0.250000  0.000000      2.000000
  0.250000  0.250000  0.000000      2.000000
  0.500000  0.250000  0.000000      2.000000
 -0.250000  0.250000  0.000000      2.000000
  0.000000  0.500000  0.000000      1.000000
  0.250000  0.500000  0.000000      2.000000
  0.500000  0.500000  0.000000      1.000000
  0.000000  0.000000  0.076923      2.000000
  0.250000  0.000000  0.076923      2.000000
  0.500000  0.000000  0.076923      2.000000
 -0.250000  0.000000  0.076923      2.000000
  0.000000  0.250000  0.076923      2.000000
  0.250000  0.250000  0.076923      2.000000
  0.500000  0.250000  0.076923      2.000000
 -0.250000  0.250000  0.076923      2.000000
  0.000000  0.500000  0.076923      2.000000
  0.250000  0.500000  0.076923      2.000000
  0.500000  0.500000  0.076923      2.000000
 -0.250000  0.500000  0.076923      2.000000
  0.000000 -0.250000  0.076923      2.000000
  0.250000 -0.250000  0.076923      2.000000
  0.500000 -0.250000  0.076923      2.000000
 -0.250000 -0.250000  0.076923      2.000000
  0.000000  0.000000  0.153846      2.000000
  0.250000  0.000000  0.153846      2.000000
  0.500000  0.000000  0.153846      2.000000
 -0.250000  0.000000  0.153846      2.000000
  0.000000  0.250000  0.153846      2.000000
  0.250000  0.250000  0.153846      2.000000
  0.500000  0.250000  0.153846      2.000000
 -0.250000  0.250000  0.153846      2.000000
  0.000000  0.500000  0.153846      2.000000
  0.250000  0.500000  0.153846      2.000000
  0.500000  0.500000  0.153846      2.000000
 -0.250000  0.500000  0.153846      2.000000
  0.000000 -0.250000  0.153846      2.000000
  0.250000 -0.250000  0.153846      2.000000
  0.500000 -0.250000  0.153846      2.000000
 -0.250000 -0.250000  0.153846      2.000000
  0.000000  0.000000  0.230769      2.000000
  0.250000  0.000000  0.230769      2.000000
  0.500000  0.000000  0.230769      2.000000
 -0.250000  0.000000  0.230769      2.000000
  0.000000  0.250000  0.230769      2.000000
  0.250000  0.250000  0.230769      2.000000
  0.500000  0.250000  0.230769      2.000000
 -0.250000  0.250000  0.230769      2.000000
  0.000000  0.500000  0.230769      2.000000
  0.250000  0.500000  0.230769      2.000000
  0.500000  0.500000  0.230769      2.000000
 -0.250000  0.500000  0.230769      2.000000
  0.000000 -0.250000  0.230769      2.000000
  0.250000 -0.250000  0.230769      2.000000
  0.500000 -0.250000  0.230769      2.000000
 -0.250000 -0.250000  0.230769      2.000000
  0.000000  0.000000  0.307692      2.000000
  0.250000  0.000000  0.307692      2.000000
[...]
  0.250000  0.000000  0.461538      2.000000
  0.500000  0.000000  0.461538      2.000000
 -0.250000  0.000000  0.461538      2.000000
  0.000000  0.250000  0.461538      2.000000
  0.250000  0.250000  0.461538      2.000000
  0.500000  0.250000  0.461538      2.000000
 -0.250000  0.250000  0.461538      2.000000
  0.000000  0.500000  0.461538      2.000000
  0.250000  0.500000  0.461538      2.000000
  0.500000  0.500000  0.461538      2.000000
 -0.250000  0.500000  0.461538      2.000000
  0.000000 -0.250000  0.461538      2.000000
  0.250000 -0.250000  0.461538      2.000000
  0.500000 -0.250000  0.461538      2.000000
 -0.250000 -0.250000  0.461538      2.000000

 Following cartesian coordinates:
            Coordinates               Weight
  0.000000 -0.000000  0.000000      1.000000
  0.062500  0.062500  0.062500      2.000000
  0.125000  0.125000  0.125000      1.000000
 -0.062500  0.062500  0.062500      2.000000
  0.000000  0.125000  0.125000      2.000000
  0.062500  0.187500  0.187500      2.000000
 -0.125000 -0.000000  0.000000      2.000000
 -0.125000  0.125000  0.125000      1.000000
 -0.062500  0.187500  0.187500      2.000000
  0.000000  0.250000  0.250000      1.000000
  0.000000 -0.076923  0.076923      2.000000
  0.062500 -0.014423  0.139423      2.000000
  0.125000  0.048077  0.201923      2.000000
 -0.062500 -0.139423  0.014423      2.000000
 -0.062500 -0.014423  0.139423      2.000000
  0.000000  0.048077  0.201923      2.000000
  0.062500  0.110577  0.264423      2.000000
 -0.125000 -0.076923  0.076923      2.000000
 -0.125000  0.048077  0.201923      2.000000
 -0.062500  0.110577  0.264423      2.000000
  0.000000  0.173077  0.326923      2.000000
 -0.187500 -0.014423  0.139423      2.000000
  0.062500 -0.139423  0.014423      2.000000
  0.125000 -0.076923  0.076923      2.000000
  0.187500 -0.014423  0.139423      2.000000
  0.000000 -0.201923 -0.048077      2.000000
  0.000000 -0.153846  0.153846      2.000000
  0.062500 -0.091346  0.216346      2.000000
  0.125000 -0.028846  0.278846      2.000000
 -0.062500 -0.216346  0.091346      2.000000
 -0.062500 -0.091346  0.216346      2.000000
  0.000000 -0.028846  0.278846      2.000000
  0.062500  0.033654  0.341346      2.000000
 -0.125000 -0.153846  0.153846      2.000000
 -0.125000 -0.028846  0.278846      2.000000
 -0.062500  0.033654  0.341346      2.000000
  0.000000  0.096154  0.403846      2.000000
 -0.187500 -0.091346  0.216346      2.000000
  0.062500 -0.216346  0.091346      2.000000
  0.125000 -0.153846  0.153846      2.000000
  0.187500 -0.091346  0.216346      2.000000
  0.000000 -0.278846  0.028846      2.000000
  0.000000 -0.230769  0.230769      2.000000
  0.062500 -0.168269  0.293269      2.000000
  0.125000 -0.105769  0.355769      2.000000
 -0.062500 -0.293269  0.168269      2.000000
 -0.062500 -0.168269  0.293269      2.000000
  0.000000 -0.105769  0.355769      2.000000
  0.062500 -0.043269  0.418269      2.000000
 -0.125000 -0.230769  0.230769      2.000000
 -0.125000 -0.105769  0.355769      2.000000
 -0.062500 -0.043269  0.418269      2.000000
  0.000000  0.019231  0.480769      2.000000
 -0.187500 -0.168269  0.293269      2.000000
[...]
  max/ min on nodes  :       2147.20       1819.69

 parallel 3D FFT for wavefunctions:
    minimum data exchange during FFTs selected (reduces bandwidth)
 parallel 3D FFT for charge:
    minimum data exchange during FFTs selected (reduces bandwidth)

 initial charge density was supplied:
 number of electron     144.0000007 magnetization      25.5417803
 keeping initial charge density in first step

 Maximum index for non-local projection operator         1108
 Maximum index for augmentation-charges          834 (set IRDMAX)

 First call to EWALD:  gamma=   0.313
 Maximum number of real-space cells 2x 2x 6
 Maximum number of reciprocal cells 4x 4x 1

--------------------------------------- Iteration      1(   1)  ---------------------------------------

 BZINTS: Fermi energy: 20.649046;144.000000 electrons
         Band energy:2038.087562;  BLOECHL correction: -0.076877

 eigenvalue-minimisations  : 43248
 total energy-change (2. order) : 0.1198705E+04  (-0.6050057E+04)
 number of electron     144.0000007 magnetization      25.5417803
 augmentation part      144.0000007 magnetization      25.5417803

 Free energy of the ion-electron system (eV)
  alpha Z        PSCENC =       868.92678499
  Ewald energy   TEWEN  =    -11987.95434162
  -Hartree energ DENC   =     -2756.55083808
  -exchange      EXHF   =         0.00000000
  -V(xc)+E(xc)   XCENC  =       282.25027724
  PAW double counting   =     14811.34072228   -15433.26389351
  entropy T*S    EENTRO =         0.00000000
  eigenvalues    EBANDS =      2038.08756246
  atomic energy  EATOM  =     13375.86880085
  Solvation  Ediel_sol  =         0.00000000
  free energy    TOTEN  =      1198.70507460 eV

  energy without entropy =     1198.70507460  energy(sigma->0) =     1198.70507460

[...]

 BZINTS: Fermi energy:  9.083316;144.000000 electrons
         Band energy: 865.899642;  BLOECHL correction: -0.051673

 eigenvalue-minimisations  : 43248
 total energy-change (2. order) :-0.1172188E+04  (-0.1111993E+04)
 number of electron     144.0000007 magnetization      25.5417803
 augmentation part      144.0000007 magnetization      25.5417803

[...]

--------------------------------------- Iteration      1(   9)  ---------------------------------------

[...]

 eigenvalue-minimisations  : 30704
 total energy-change (2. order) :-0.3676087E-06  (-0.4024145E-06)
 number of electron     144.0000007 magnetization      25.5417803
 augmentation part      144.0000007 magnetization      25.5417803

 Free energy of the ion-electron system (eV)
  alpha Z        PSCENC =       868.92678499
  Ewald energy   TEWEN  =    -11987.95434162
  -Hartree energ DENC   =     -2756.55083808
  -exchange      EXHF   =         0.00000000
  -V(xc)+E(xc)   XCENC  =       282.25027724
  PAW double counting   =     14811.34072228   -15433.26389351
  entropy T*S    EENTRO =         0.00000000
  eigenvalues    EBANDS =       729.50185624
  atomic energy  EATOM  =     13375.86880085
  Solvation  Ediel_sol  =         0.00000000
  free energy    TOTEN  =      -109.88063162 eV

  energy without entropy =     -109.88063162  energy(sigma->0) =     -109.88063162

 average (electrostatic) potential at core
  the test charge radii are     0.9791  1.0103
  (the norm of the test charge is              1.0000)
       1 -83.9149       2 -83.9845       3 -83.8799       4 -83.9157       5 -83.8456
       6 -83.8945       7 -83.9322       8 -83.9728       9 -41.9296      10 -41.9458
      11 -41.8074      12 -41.7909      13 -41.9876      14 -41.8649      15 -41.9193
      16 -42.0389

 E-fermi :   7.4536     XC(G=0): -13.0395     alpha+bet :-14.6744

 spin component 1

 k-point     1 :       0.0000    0.0000    0.0000
  band No.  band energies     occupation
      1      -1.3062      1.00000
      2       0.8061      1.00000
      3       0.8336      1.00000
      4       0.8458      1.00000
      5       0.8979      1.00000
      6       1.4536      1.00000
      7       1.4850      1.00000
      8       2.4922      1.00000
      9       2.5007      1.00000
     10       2.5126      1.00000
     11       3.0527      1.00000
     12       3.1361      1.00000
     13       3.1726      1.00000
     14       3.1855      1.00000
     15       3.2071      1.00000
     16       3.2535      1.00000
     17       3.3159      1.00000
     18       3.6952      1.00000
     19       3.7907      1.00000
     20       3.8437      1.00000
     21       3.9072      1.00000
     22       3.9776      1.00000
     23       4.0680      1.00000
     24       4.2166      1.00000
     25       4.2567      1.00000
     26       4.4298      1.00000
     27       4.5216      1.00000
     28       4.5629      1.00000
     29       4.5862      1.00000
     30       4.6494      1.00000
     31       4.6774      1.00000
     32       4.8475      1.00000
     33       4.8507      1.00000
     34       4.8686      1.00000
     35       4.8715      1.00000
     36       4.9091      1.00000
     37       4.9468      1.00000
     38       4.9605      1.00000
     39       5.0022      1.00000
     40       5.0415      1.00000
     41       5.0652      1.00000
     42       5.0764      1.00000
     43       5.0898      1.00000
     44       5.1246      1.00000
     45       5.1322      1.00000
     46       5.1502      1.00000
     47       5.1753      1.00000
     48       5.1980      1.00000
     49       5.2014      1.00000
     50       5.2542      1.00000
     51       5.4159      1.00000
     52       5.4494      1.00000
     53       5.5374      1.00000
     54       5.5571      1.00000
     55       5.7362      1.00000
     56       5.7413      1.00000
     57       5.7766      1.00000
     58       5.8103      1.00000
     59       5.8167      1.00000
     60       5.8370      1.00000
[...]
     88       7.1955      0.75480
     89       7.2760      0.33128
     90       8.4250      0.00000
     91       8.5001      0.00000
     92       9.5536      0.00000
     93       9.7270      0.00000
     94       9.7432      0.00000
     95       9.8849      0.00000
     96       9.9418      0.00000
     97      13.2496      0.00000
     98      13.2597      0.00000
     99      15.6092      0.00000
    100      15.8373      0.00000
    101      15.9024      0.00000
    102      16.1512      0.00000

[...]

 spin component 2

[...]

 k-point   106 :      -0.2500   -0.2500    0.4615
  band No.  band energies     occupation
      1       3.3534      1.00000
      2       3.4606      1.00000
      3       3.4827      1.00000
      4       3.5828      1.00000
      5       3.6528      1.00000
      6       3.6776      1.00000
      7       3.7217      1.00000
      8       3.9631      1.00000
      9       3.9902      1.00000
     10       4.0031      1.00000
     11       4.0698      1.00000
     12       4.1174      1.00000
     13       4.1397      1.00000
     14       4.3031      1.00000
     15       4.3563      1.00000
     16       4.3681      1.00000
     17       4.5423      1.00000
     18       4.5714      1.00000
     19       4.6382      1.00000
     20       4.6675      1.00000
     21       4.7564      1.00000
     22       4.7834      1.00000
     23       5.0904      1.00000
     24       5.1181      1.00000
     25       5.2127      1.00000
     26       5.2522      1.00000
     27       5.3139      1.00000
     28       5.3321      1.00000
     29       5.4461      1.00000
     30       5.4870      1.00000
     31       5.5342      1.00000
     32       5.5957      1.00000
     33       5.7906      1.00000
     34       5.8821      1.00000
     35       5.9387      1.00000
     36       5.9842      1.00000
     37       6.0136      1.00000
     38       6.0714      1.00000
     39       6.1595      1.00000
     40       6.2403      1.00000
     41       6.3280      1.00000
     42       6.3580      1.00000
     43       6.4432      1.00000
     44       6.5161      1.00000
     45       6.5944      1.00000
     46       6.6552      1.00000
     47       6.7212      1.00000
     48       6.7466      1.00000
     49       6.8171      1.00000
     50       6.8950      1.00000
     51       6.9996      1.00000
     52       7.0175      1.00000
     53       7.3487      1.00000
     54       7.3752      1.00088
     55       7.4966      0.23260
     56       7.5635     -0.05926
     57       7.6378     -0.00100
     58       7.7505      0.00000
     59       7.8002      0.00000
     60       7.8401      0.00000
[...]
     88      10.7641      0.00000
     89      10.9502      0.00000
     90      11.1205      0.00000
     91      11.2984      0.00000
     92      11.3207      0.00000
     93      12.4979      0.00000
     94      12.5362      0.00000
     95      13.5920      0.00000
     96      13.6047      0.00000
     97      14.4678      0.00000
     98      14.4816      0.00000
     99      15.2510      0.00000
    100      15.2668      0.00000
    101      15.5040      0.00000
    102      15.5523      0.00000

 soft charge-density along one line, spin component           1
         0         1         2         3         4         5         6         7         8         9
 total charge-density along one line

 soft charge-density along one line, spin component           2
         0         1         2         3         4         5         6         7         8         9
 total charge-density along one line

------------------------ aborting loop because EDIFF is reached ----------------------------------------

 total charge

# of ion       s       p       d       tot
    1        0.499   0.493   8.302   9.294
    2        0.515   0.526   8.312   9.354
    3        0.507   0.509   8.324   9.340
    4        0.509   0.508   8.317   9.333
    5        0.493   0.485   8.303   9.281
    6        0.501   0.495   8.321   9.317
    7        0.511   0.515   8.322   9.348
    8        0.510   0.516   8.311   9.337
    9        0.469   0.493   6.185   7.148
   10        0.472   0.501   6.185   7.158
   11        0.477   0.509   6.213   7.199
   12        0.479   0.510   6.215   7.204
   13        0.471   0.499   6.181   7.152
   14        0.476   0.501   6.209   7.186
   15        0.473   0.503   6.189   7.165
   16        0.466   0.491   6.166   7.124
tot          7.828   8.055 116.055 131.938

 magnetization (x)

[...]

  FORCE on cell =-STRESS in cart. coord.  units (eV):
  Direction    XX          YY          ZZ          XY          YZ          ZX
  Alpha Z   868.92678   868.92678   868.92678
  Ewald   -4038.62404 -3974.68010 -3974.68007   -20.64218   -65.06888   -20.64220
  Hartree   876.09099   939.16268   939.16065   -19.97848   -67.28251   -19.95992
  E(xc)    -758.84460  -759.29931  -759.29908     0.08577     0.23056     0.08701
  Local     398.69482   268.79219   268.79713    41.47434   133.58979    41.42397
  n-local  -264.98139  -268.40969  -268.41037     0.26587     1.54618     0.28847
  augment  1716.68132  1720.39593  1720.39555    -0.60192    -1.18691    -0.57879
  Kinetic  1200.50163  1203.09353  1203.09222    -0.31232    -0.78273    -0.29191
  Fock        0.00000     0.00000     0.00000     0.00000     0.00000     0.00000
  Total      -1.55449    -2.01798    -2.01719     0.29108     1.04550     0.32664
  in kB     -13.67312   -17.75001   -17.74302     2.56034     9.19611     2.87307

 VOLUME and BASIS-vectors are now :
  energy-cutoff  :      520.00
  volume of cell :      182.15
      direct lattice vectors                 reciprocal lattice vectors
     7.142000000  3.571000000  3.571000000     0.070008401  0.070008401  0.070008401
    -7.142000000  3.571000000  3.571000000    -0.070008401  0.070008401  0.070008401
     0.000000000 -1.785500000  1.785500000     0.000000000 -0.280033604  0.280033604

  length of vectors
     8.747127871  8.747127871  2.525078316     0.121258108  0.121258108  0.396027321

 FORCES acting on ions
    electron-ion (+dipol)            ewald-force                    non-local-force                 convergence-correction
   -.110E+03 -.499E+02 -.499E+02   0.111E+03 0.502E+02 0.502E+02   -.327E+00 -.816E-01 -.810E-01   -.403E+00 -.252E+00 -.255E+00
   -.343E+02 0.601E+02 0.601E+02   0.348E+02 -.606E+02 -.606E+02   -.637E-02 0.195E+00 0.194E+00   -.427E+00 0.230E+00 0.233E+00
   0.325E+02 0.411E+02 0.411E+02   -.328E+02 -.415E+02 -.415E+02   0.584E-01 0.976E-01 0.973E-01   0.254E+00 0.277E+00 0.277E+00
   0.342E+02 -.102E+03 -.102E+03   -.344E+02 0.103E+03 0.103E+03   0.265E+00 -.209E+00 -.209E+00   -.176E-01 -.609E+00 -.608E+00
   0.257E+02 0.170E+01 0.171E+01   -.258E+02 -.177E+01 -.176E+01   0.183E+00 -.115E+00 -.114E+00   -.897E-01 0.165E+00 0.163E+00
   -.324E+02 0.503E+02 0.503E+02   0.326E+02 -.507E+02 -.507E+02   0.867E-01 -.609E-01 -.600E-01   -.296E+00 0.428E+00 0.427E+00
   0.112E+03 0.260E+01 0.260E+01   -.113E+03 -.257E+01 -.257E+01   0.112E+00 0.357E-01 0.349E-01   0.781E+00 -.666E-01 -.667E-01
   -.369E+02 -.466E+01 -.466E+01   0.369E+02 0.459E+01 0.459E+01   -.318E+00 0.366E-02 0.280E-02   0.264E+00 0.599E-01 0.607E-01
   -.812E+02 -.964E+01 -.965E+01   0.818E+02 0.931E+01 0.931E+01   -.396E+00 0.219E+00 0.220E+00   -.264E+00 0.104E+00 0.104E+00
   0.441E+02 0.157E+02 0.157E+02   -.445E+02 -.154E+02 -.154E+02   0.248E+00 -.188E+00 -.188E+00   0.111E+00 -.748E-01 -.752E-01
   -.256E+02 -.380E+02 -.380E+02   0.258E+02 0.387E+02 0.387E+02   0.114E-01 -.493E+00 -.493E+00   -.148E+00 -.188E+00 -.188E+00
   -.411E+02 -.669E+01 -.669E+01   0.416E+02 0.658E+01 0.658E+01   -.283E+00 0.205E+00 0.204E+00   -.270E+00 -.832E-01 -.825E-01
   -.445E+02 0.961E+02 0.961E+02   0.450E+02 -.967E+02 -.967E+02   -.251E+00 0.234E+00 0.234E+00   -.266E+00 0.459E+00 0.459E+00
   0.268E+02 -.526E+02 -.526E+02   -.268E+02 0.531E+02 0.531E+02   -.110E+00 -.133E+00 -.132E+00   0.129E+00 -.369E+00 -.369E+00
   0.107E+03 0.448E+02 0.448E+02   -.108E+03 -.452E+02 -.452E+02   0.747E+00 0.171E+00 0.172E+00   0.265E+00 0.180E+00 0.181E+00
   0.240E+02 -.486E+02 -.486E+02   -.244E+02 0.488E+02 0.488E+02   -.383E-01 0.780E-01 0.772E-01   0.396E+00 -.211E+00 -.211E+00
   -.296E-02 -.780E-02 -.800E-02   0.242E-12 0.355E-13 0.163E-12   -.176E-01 -.407E-01 -.402E-01   0.170E-01 0.502E-01 0.499E-01

 POSITION                                       TOTAL-FORCE (eV/Angst)
     -5.34927      1.78945      3.57495        -0.000303     -0.013788     -0.014263
     -1.80378      1.78757      3.57307        -0.002859     -0.006749     -0.006548
     -1.77562      3.58655      5.37205        -0.019344      0.003609      0.004346
     -0.01614      7.12623      7.12623         0.000439      0.003940      0.004518
      0.03098      3.57908      7.15008         0.011337     -0.011497     -0.010907
      1.77224      3.54477      5.33027         0.010249      0.000666      0.000231
     -3.59254      3.55728      7.12828        -0.006172     -0.002430     -0.003111
      3.59665      3.58774      3.58774         0.001247     -0.007775     -0.007773
      3.54710      3.55802      7.12902         0.003587     -0.007556     -0.007418
     -3.52974      1.80938      5.38038        -0.017957      0.006222      0.006436
     -1.75699     -0.00162      1.78388         0.006613      0.009871      0.009911
     -0.01147      1.80707      1.80707         0.008591      0.004676      0.004457
     -0.04977      3.60064      3.60064         0.005390      0.002001      0.001492
     -5.39322      3.54193      5.32743        -0.006180      0.021828      0.021703
      1.85459      1.79417      3.57968         0.005019     -0.005543     -0.004724
     -1.80702      5.32573      7.11123         0.000341      0.002526      0.001649
    total drift:                               -0.003575      0.001680      0.001656

  FREE ENERGIE OF THE ION-ELECTRON SYSTEM (eV)
  free  energy   TOTEN  =      -109.88063162 eV

  energy  without entropy=     -109.88063162  energy(sigma->0) =     -109.88063162

 total charge

[...]

 magnetization (x)

# of ion       s       p       d       tot
    1       -0.021  -0.044   0.704   0.639
    2       -0.029  -0.063   0.730   0.638
    3       -0.021  -0.046   0.650   0.583
    4       -0.025  -0.049   0.688   0.614
    5       -0.015  -0.038   0.661   0.608
    6       -0.020  -0.041   0.673   0.611
    7       -0.025  -0.054   0.690   0.611
    8       -0.024  -0.053   0.715   0.638
    9       -0.003  -0.026   2.661   2.632
   10       -0.002  -0.027   2.661   2.632
   11       -0.008  -0.037   2.555   2.509
   12       -0.013  -0.044   2.556   2.499
   13       -0.002  -0.026   2.690   2.662
   14       -0.008  -0.029   2.603   2.566
   15       -0.007  -0.035   2.652   2.610
   16        0.002  -0.019   2.729   2.712
tot         -0.222  -0.632  26.619  25.765

 BZINTS: Fermi energy:  7.453592;144.000000 electrons
         Band energy: 729.501856;  BLOECHL correction: -0.145546