 vasp.5.4.4.18Apr17-6-g9f103f2a35 (build Sep 06 2021 19:49:22) complex

 executed on             LinuxIFC date 2021.12.27  21:58:41

 INCAR:
 POTCAR:    PAW_PBE Ni 02Aug2007
 POTCAR:    PAW_PBE Fe 06Sep2000
 POTCAR:    PAW_PBE Ni 02Aug2007
   VRHFIN =Ni:

   TITEL  = PAW_PBE Ni 02Aug2007
   POMASS =   58.690; ZVAL   =   10.000    mass and valenz
   ENMAX  =  269.532; ENMIN  =  202.149 eV

 POTCAR:    PAW_PBE Fe 06Sep2000
   VRHFIN =Fe:  d7 s1

   TITEL  = PAW_PBE Fe 06Sep2000
   POMASS =   55.847; ZVAL   =    8.000    mass and valenz
   ENMAX  =  267.882; ENMIN  =  200.911 eV

 Optimization of the real space projectors (new method)

 maximal supplied QI-value         = 16.25
 optimisation between [QCUT,QGAM] = [ 11.54, 23.24] = [ 37.28,151.24] Ry
 Optimized for a Real-space Cutoff    1.45 Angstroem

   l    n(q)    QCUT    max X(q) W(low)/X(q) W(high)/X(q)  e(spline)
   2      9    11.539    60.317    0.19E-03    0.47E-04    0.16E-06
   2      9    11.539    55.921    0.19E-03    0.48E-04    0.16E-06
   0     10    11.539    51.690    0.80E-04    0.50E-04    0.24E-06
   0     10    11.539    30.015    0.73E-04    0.45E-04    0.22E-06
   1     10    11.539    18.849    0.87E-04    0.16E-03    0.71E-07
   1     10    11.539    14.624    0.73E-04    0.13E-03    0.64E-07
 Optimization of the real space projectors (new method)

 maximal supplied QI-value         = 16.25
 optimisation between [QCUT,QGAM] = [ 11.54, 23.24] = [ 37.28,151.24] Ry
 Optimized for a Real-space Cutoff    1.53 Angstroem

   l    n(q)    QCUT    max X(q) W(low)/X(q) W(high)/X(q)  e(spline)
   2     10    11.539    80.901    0.11E-03    0.14E-03    0.21E-06
   2     10    11.539    75.754    0.11E-03    0.14E-03    0.22E-06
   0     11    11.539    58.752    0.52E-04    0.18E-04    0.33E-06
   0     11    11.539    30.679    0.44E-04    0.16E-04    0.30E-06
   1     10    11.539    17.977    0.53E-04    0.29E-04    0.13E-06
   1     10    11.539    13.559    0.44E-04    0.25E-04    0.11E-06
  PAW_PBE Ni 02Aug2007                  :
  PAW_PBE Fe 06Sep2000                  :

 POSCAR: POSCAR
  positions in direct lattice
  velocities in cartesian coordinates
 exchange correlation table for  LEXCH =        8
   RHO(1)=    0.500       N(1)  =     2000
   RHO(2)=  100.500       N(2)  =     4000

 ion  position               nearest neighbor table
   1  0.247  0.689  0.817-  15 2.46  11 2.46  10 2.48   6 2.49  13 2.50   3 2.52   2 2.52   6 2.52
                             7 2.52   4 2.54  14 2.55  13 2.57
   2  0.998  0.249  0.751-   7 2.48  14 2.49  11 2.50  10 2.50   3 2.51   7 2.51   6 2.51   1 2.52
                             4 2.53  13 2.54  12 2.54  14 2.55
   3  0.250  0.938  0.565-   6 2.49   7 2.50   2 2.51   4 2.51   1 2.52  12 2.53   9 2.53  12 2.53
                             6 2.53   8 2.54   5 2.54  14 2.58
   4  0.000  0.500  0.498-   8 2.49  12 2.50   9 2.51   3 2.51   5 2.52   7 2.53   2 2.53   7 2.53
                             8 2.53   6 2.54   1 2.54  16 2.58
   5  0.003  0.749  0.246-  13 2.46  10 2.46  11 2.48   8 2.49  15 2.50   4 2.52   9 2.52   8 2.52
                            12 2.52   3 2.54  16 2.55  15 2.57
   6  0.743  0.812  0.690-   3 2.49   1 2.49  11 2.50   7 2.50   2 2.51   1 2.52  14 2.53   8 2.53
                             3 2.53   4 2.54  12 2.56  13 2.56
   7  0.502  0.374  0.630-   2 2.48   6 2.50  13 2.50   3 2.50   2 2.51  14 2.51   1 2.52   4 2.53
                            12 2.53   4 2.53   9 2.54   8 2.56
   8  0.507  0.625  0.372-   4 2.49   5 2.49  10 2.50  12 2.50   9 2.51   5 2.52  16 2.53   6 2.53
                             4 2.53   3 2.54   7 2.56  15 2.56
   9  0.252  0.188  0.311-  12 2.48  16 2.49  10 2.50  11 2.50   4 2.51  12 2.51   8 2.51   5 2.52
                             3 2.53  15 2.54   7 2.54  16 2.55
  10  0.247  0.440  0.063-  13 2.43   5 2.46  14 2.48   1 2.48  16 2.48   8 2.50  16 2.50   9 2.50
                             2 2.50  13 2.50  11 2.52  15 2.55
  11  0.003  0.998  1.000-  15 2.43   1 2.46  16 2.48   5 2.48  14 2.48   6 2.50  14 2.50   2 2.50
                             9 2.50  15 2.50  10 2.52  13 2.55
  12  0.748  0.063  0.432-   9 2.48   8 2.50  15 2.50   4 2.50   9 2.51  16 2.51   5 2.52   3 2.53
                             7 2.53   3 2.53   2 2.54   6 2.56
  13  0.737  0.556  0.946-  16 2.39  14 2.41  10 2.43  15 2.44   5 2.46   1 2.50   7 2.50  10 2.50
                             2 2.54  11 2.55   6 2.56   1 2.57
  14  0.508  0.132  0.885-  16 2.34  15 2.39  13 2.41  10 2.48  11 2.48   2 2.49  11 2.50   7 2.51
                             6 2.53   1 2.55   2 2.55   3 2.58
  15  0.513  0.882  0.117-  14 2.39  16 2.41  11 2.43  13 2.44   1 2.46   5 2.50  12 2.50  11 2.50
                             9 2.54  10 2.55   8 2.56   5 2.57
  16  0.742  0.306  0.177-  14 2.34  13 2.39  15 2.41  11 2.48  10 2.48   9 2.49  10 2.50  12 2.51
                             8 2.53   5 2.55   9 2.55   4 2.58

IMPORTANT INFORMATION: All symmetrisations will be switched off!
NOSYMM: (Re-)initialisation of all symmetry stuff for point group C_1.

Automatic generation of k-mesh.
 generate k-points for:    5    4    3
Space group operators:
 irot       det(A)        alpha          n_x          n_y          n_z        tau_x        tau_y        tau_z
    1     1.000000     0.000001     1.000000     0.000000     0.000000     0.000000     0.000000     0.000000

 Subroutine IBZKPT returns following result:

 Found     31 irreducible k-points:

 Following reciprocal coordinates:
            Coordinates               Weight
  0.000000  0.000000  0.000000      1.000000
  0.200000  0.000000  0.000000      2.000000
  0.400000  0.000000  0.000000      2.000000
  0.000000  0.250000  0.000000      2.000000
  0.200000  0.250000  0.000000      2.000000
  0.400000  0.250000  0.000000      2.000000
 -0.400000  0.250000  0.000000      2.000000
 -0.200000  0.250000  0.000000      2.000000
  0.000000  0.500000  0.000000      1.000000
  0.200000  0.500000  0.000000      2.000000
  0.400000  0.500000  0.000000      2.000000
  0.000000  0.000000  0.333333      2.000000
  0.200000  0.000000  0.333333      2.000000
  0.400000  0.000000  0.333333      2.000000
 -0.400000  0.000000  0.333333      2.000000
 -0.200000  0.000000  0.333333      2.000000
  0.000000  0.250000  0.333333      2.000000
  0.200000  0.250000  0.333333      2.000000
  0.400000  0.250000  0.333333      2.000000
 -0.400000  0.250000  0.333333      2.000000
 -0.200000  0.250000  0.333333      2.000000
  0.000000  0.500000  0.333333      2.000000
  0.200000  0.500000  0.333333      2.000000
  0.400000  0.500000  0.333333      2.000000
 -0.400000  0.500000  0.333333      2.000000
 -0.200000  0.500000  0.333333      2.000000
  0.000000 -0.250000  0.333333      2.000000
  0.200000 -0.250000  0.333333      2.000000
  0.400000 -0.250000  0.333333      2.000000
 -0.400000 -0.250000  0.333333      2.000000
 -0.200000 -0.250000  0.333333      2.000000

 Following cartesian coordinates:
            Coordinates               Weight
 -0.000000 -0.000000 -0.000000      1.000000
  0.050000  0.050000 -0.150000      2.000000
  0.100000  0.100000 -0.300000      2.000000
 -0.015625 -0.140625 -0.078125      2.000000
  0.034375 -0.090625 -0.228125      2.000000
  0.084375 -0.040625 -0.378125      2.000000
 -0.115625 -0.240625  0.221875      2.000000
 -0.065625 -0.190625  0.071875      2.000000
 -0.031250 -0.281250 -0.156250      1.000000
  0.018750 -0.231250 -0.306250      2.000000
  0.068750 -0.181250 -0.456250      2.000000
 -0.145833  0.020833 -0.062500      2.000000
 -0.095833  0.070833 -0.212500      2.000000
 -0.045833  0.120833 -0.362500      2.000000
 -0.245833 -0.079167  0.237500      2.000000
 -0.195833 -0.029167  0.087500      2.000000
 -0.161458 -0.119792 -0.140625      2.000000
 -0.111458 -0.069792 -0.290625      2.000000
 -0.061458 -0.019792 -0.440625      2.000000
 -0.261458 -0.219792  0.159375      2.000000
 -0.211458 -0.169792  0.009375      2.000000
 -0.177083 -0.260417 -0.218750      2.000000
 -0.127083 -0.210417 -0.368750      2.000000
 -0.077083 -0.160417 -0.518750      2.000000
 -0.277083 -0.360417  0.081250      2.000000
 -0.227083 -0.310417 -0.068750      2.000000
 -0.130208  0.161458  0.015625      2.000000
 -0.080208  0.211458 -0.134375      2.000000
 -0.030208  0.261458 -0.284375      2.000000
 -0.230208  0.061458  0.315625      2.000000
 -0.180208  0.111458  0.165625      2.000000

 SYSTEM =  SQS-NiFe
 POSCAR =  POSCAR

 Startparameter for this run:
   NWRITE =      2    write-flag & timer
   PREC   = accura    normal or accurate (medium, high low for compatibility)
   ISTART =      0    job   : 0-new  1-cont  2-samecut
   ICHARG =      2    charge: 1-file 2-atom 10-const
   ISPIN  =      2    spin polarized calculation?
   LNONCOLLINEAR =      F non collinear calculations
   LSORBIT =      F    spin-orbit coupling
   INIWAV =      1    electr: 0-lowe 1-rand  2-diag
   LASPH  =      F    aspherical Exc in radial PAW
   METAGGA=      F    non-selfconsistent MetaGGA calc.

 Electronic Relaxation 1
   ENCUT  =  520.0 eV  38.22 Ry    6.18 a.u.   8.07 10.42 13.98*2*pi/ulx,y,z
   ENINI  =  520.0     initial cutoff
   ENAUG  =  544.6 eV  augmentation charge cutoff
   NELM   =    200;   NELMIN=  2; NELMDL= -5     # of ELM steps
   EDIFF  = 0.1E-04   stopping-criterion for ELM
   LREAL  =      T    real-space projection
   NLSPLINE    = F    spline interpolate recip. space projectors
   LCOMPAT=      F    compatible to vasp.4.4
   GGA_COMPAT  = T    GGA compatible to vasp.4.4-vasp.4.6
   LMAXPAW     = -100 max onsite density
   LMAXMIX     =    2 max onsite mixed and CHGCAR
   VOSKOWN=      0    Vosko Wilk Nusair interpolation
   ROPT   =   -0.00025  -0.00025
 Ionic relaxation
   EDIFFG = -.2E-01   stopping-criterion for IOM
   NSW    =     99    number of steps for IOM
   NBLOCK =      1;   KBLOCK =     99    inner block; outer block
   IBRION =      2    ionic relax: 0-MD 1-quasi-New 2-CG
   NFREE  =      1    steps in history (QN), initial steepest desc. (CG)
   ISIF   =      2    stress and relaxation
   IWAVPR =     11    prediction:  0-non 1-charg 2-wave 3-comb
   ISYM   =      0    0-nonsym 1-usesym 2-fastsym
   LCORR  =      T    Harris-Foulkes like correction to forces

   POTIM  = 0.5000    time-step for ionic-motion
   TEIN   =    0.0    initial temperature
   TEBEG  =    0.0;   TEEND  =   0.0 temperature during run
   SMASS  =  -3.00    Nose mass-parameter (am)
   estimated Nose-frequenzy (Omega)   =  0.10E-29 period in steps =****** mass=  -0.431E-27a.u.
   SCALEE = 1.0000    scale energy and forces
   NPACO  =    256;   APACO  = 16.0  distance and # of slots for P.C.
   PSTRESS=    0.0 pullay stress

  Mass of Ions in am
   POMASS =  58.69 55.85
  Ionic Valenz
   ZVAL   =  10.00  8.00
  Atomic Wigner-Seitz radii
  virtual crystal weights
   VCA    =   1.00  1.00
   NELECT =     152.0000    total number of electrons
   NUPDOWN=      -1.0000    fix difference up-down

 DOS related values:
   EMIN   =  10.00;   EMAX   =-10.00  energy-range for DOS
   EFERMI =   0.00
   ISMEAR =     1;   SIGMA  =   0.20  broadening in eV -4-tet -1-fermi 0-gaus

 Electronic relaxation 2 (details)
[...]
   0.636E+01 0.121E+01 0.623E+01   -.547E+01 -.140E+01 -.662E+01   0.484E+00 -.471E+00 -.332E+00   -.137E-01 0.166E-01 0.351E-02
   0.109E+02 -.217E+01 0.279E+01   -.103E+02 0.216E+01 -.216E+01   0.572E+00 0.369E-02 0.494E+00   -.208E-01 -.637E-02 -.636E-02
   -.642E+01 -.115E+01 -.620E+01   0.552E+01 0.133E+01 0.658E+01   -.484E+00 0.471E+00 0.332E+00   0.237E-01 -.941E-02 0.460E-02
   -.110E+02 0.207E+01 -.278E+01   0.103E+02 -.204E+01 0.215E+01   -.573E+00 -.328E-02 -.494E+00   0.325E-01 -.931E-02 0.157E-01
   0.551E-03 0.122E-02 0.430E-02   0.128E-12 0.528E-13 -.568E-13   -.220E-03 0.102E-02 -.850E-03   -.154E-02 -.134E-02 -.389E-02

 POSITION                                       TOTAL-FORCE (eV/Angst)
     -5.35116     -1.77688     -3.54538         0.229987      0.056381      0.095765
     -3.55803      1.77466     -5.31040         0.031236      0.038127     -0.071356
     -3.55986     -3.54249     -3.54882        -0.037553     -0.076863      0.037840
     -3.53006     -1.77495     -1.76881         0.036691      0.076511     -0.037061
     -1.73891     -3.54050     -1.77214        -0.229889     -0.057673     -0.096080
     -3.57744     -1.77875     -5.29939         0.200308      0.076427     -0.061797
     -3.57838      0.01579     -3.55941         0.178744     -0.186210      0.140798
     -1.74007     -1.76626     -3.56309        -0.200210     -0.075952      0.060647
     -1.75947     -0.00220     -1.77965        -0.030645     -0.038685      0.072298
     -0.00747     -1.78832     -1.76720        -0.113829     -0.070358      0.099384
     -7.08251     -3.52923     -3.55032         0.112532      0.070514     -0.098626
     -1.73904      1.75668     -3.53054        -0.178105      0.186172     -0.141359
     -5.39790      0.02805     -5.27437         1.357716     -0.638056     -0.716893
     -5.37671      1.76836     -3.60374         1.233845     -0.015169      1.115772
      0.08036     -3.57291     -3.58809        -1.356558      0.636404      0.716050
      0.05917      0.00395     -3.48616        -1.234269      0.018432     -1.115383
    total drift:                               -0.001210      0.000901     -0.000440

  FREE ENERGIE OF THE ION-ELECTRON SYSTEM (eV)
  free  energy   TOTEN  =       -98.73253515 eV

  energy  without entropy=      -98.73875830  energy(sigma->0) =      -98.73460953

[...]

 d Force = 0.3833613E+00[ 0.210E+00, 0.557E+00]  d Energy = 0.3762167E+00 0.714E-02
 d Force =-0.1335172E+02[-0.222E+02,-0.452E+01]  d Ewald  =-0.1340659E+02 0.549E-01

 Steepest descent step on ions:
 trial-energy change:   -0.376217  1 .order   -0.383361   -0.557118   -0.209604
  (g-gl).g = 0.557E+00      g.g   = 0.557E+00  gl.gl    = 0.000E+00
 g(Force)  = 0.557E+00   g(Stress)= 0.000E+00 ortho     = 0.000E+00
 gamma     =   0.00000
 trial     =   1.00000
 opt step  =   1.77186  (harmonic =   1.60315) maximal distance =0.11605629
 next E    =   -99.186359   (d E  =  -0.45382)

[...]

 d Force = 0.7363609E-01[-0.145E-01, 0.162E+00]  d Energy = 0.7206913E-01 0.157E-02
 d Force =-0.2223632E+02[-0.273E+02,-0.171E+02]  d Ewald  =-0.2225525E+02 0.189E-01

[...]

 d Force = 0.6518468E-03[ 0.109E-03, 0.119E-02]  d Energy = 0.6384515E-03 0.134E-04
 d Force = 0.2216861E+01[ 0.218E+01, 0.225E+01]  d Ewald  = 0.2216870E+01-0.936E-05

[...]

 Conjugate gradient step on ions:
 trial-energy change:   -0.036354  1 .order   -0.036417   -0.047478   -0.025355
  (g-gl).g = 0.434E-01      g.g   = 0.417E-01  gl.gl    = 0.557E+00
 g(Force)  = 0.417E-01   g(Stress)= 0.000E+00 ortho     =-0.172E-02
 gamma     =   0.07797
 trial     =   1.14166
 opt step  =   2.45010  (harmonic =   2.45010) maximal distance =0.03098655
 next E    =   -99.232405   (d E  =  -0.05095)

[...]

 Conjugate gradient step on ions:
 trial-energy change:   -0.008670  1 .order   -0.008723   -0.012025   -0.005420
  (g-gl).g = 0.807E-02      g.g   = 0.853E-02  gl.gl    = 0.417E-01
 g(Force)  = 0.853E-02   g(Stress)= 0.000E+00 ortho     = 0.218E-03
 gamma     =   0.19332
 trial     =   1.40335
 opt step  =   2.66901  (harmonic =   2.55489) maximal distance =0.02536124
 next E    =   -99.243411   (d E  =  -0.01108)

[...]

 d Force = 0.2180859E-02[-0.526E-03, 0.489E-02]  d Energy = 0.2134756E-02 0.461E-04
 d Force = 0.2092975E+01[ 0.195E+01, 0.224E+01]  d Ewald  = 0.2093007E+01-0.317E-04

[...]

 d Force = 0.1769088E-02[ 0.249E-03, 0.329E-02]  d Energy = 0.1745274E-02 0.238E-04
 d Force = 0.1029394E+01[ 0.948E+00, 0.111E+01]  d Ewald  = 0.1029388E+01 0.590E-05

[...]

 d Force = 0.7304950E-05[-0.585E-05, 0.205E-04]  d Energy = 0.7437940E-05-0.133E-06
 d Force = 0.7728231E-01[ 0.767E-01, 0.778E-01]  d Ewald  = 0.7728231E-01 0.157E-08

 real space projection operators:
  max/ min on nodes  :       1617.05       1455.75

[...]

 eigenvalue-minimisations  :  9155
 total energy-change (2. order) : 0.3709574E-04  (-0.2773073E-05)
 number of electron     151.9999949 magnetization      18.1194966
 augmentation part       90.5635384 magnetization      15.8420530

 Broyden mixing:
  rms(total) = 0.23890E-02    rms(broyden)= 0.23887E-02
  rms(prec ) = 0.32446E-02
  weight for this iteration     100.00

 eigenvalues of (default mixing * dielectric matrix)
  average eigenvalue GAMMA=   0.4242
  0.7534  0.6646  0.1180  0.1611

[...]

--------------------------------------- Iteration     11(   6)  ---------------------------------------

 eigenvalue-minimisations  :  7057
 total energy-change (2. order) :-0.4233187E-05  (-0.1301054E-05)
 number of electron     151.9999949 magnetization      18.1194966
 augmentation part       90.5635384 magnetization      15.8420530

 Free energy of the ion-electron system (eV)
  alpha Z        PSCENC =       816.77350523
  Ewald energy   TEWEN  =    -13459.44393300
  -Hartree energ DENC   =     -3211.26936363
  -exchange      EXHF   =         0.00000000
  -V(xc)+E(xc)   XCENC  =       387.36225200
  PAW double counting   =     16554.75563267   -17414.43699806
  entropy T*S    EENTRO =         0.00519652
  eigenvalues    EBANDS =       917.70678883
  atomic energy  EATOM  =     15309.30175564
  Solvation  Ediel_sol  =         0.00000000
  free energy    TOTEN  =       -99.24516380 eV

  energy without entropy =      -99.25036032  energy(sigma->0) =      -99.24689597

 average (electrostatic) potential at core
  the test charge radii are     0.9791  1.0103
  (the norm of the test charge is              1.0000)
       1 -82.9709       2 -82.9161       3 -82.8943       4 -82.8944       5 -82.9708
       6 -82.9168       7 -82.9157       8 -82.9169       9 -82.9160      10 -83.0094
      11 -83.0093      12 -82.9156      13 -41.1682      14 -41.1510      15 -41.1681
      16 -41.1511

 E-fermi :   8.4261     XC(G=0): -13.1407     alpha+bet :-15.5409

[...]

 spin component 2

[...]

 k-point    31 :      -0.2000   -0.2500    0.3333
  band No.  band energies     occupation
      1       0.4537      1.00000
      2       1.8660      1.00000
      3       2.7607      1.00000
      4       2.9716      1.00000
      5       3.7645      1.00000
      6       4.0446      1.00000
      7       4.3251      1.00000
      8       4.5850      1.00000
      9       4.6893      1.00000
     10       4.8577      1.00000
     11       4.8849      1.00000
     12       4.9165      1.00000
     13       4.9704      1.00000
     14       5.1489      1.00000
     15       5.2170      1.00000
     16       5.3355      1.00000
     17       5.3449      1.00000
     18       5.3588      1.00000
     19       5.4571      1.00000
     20       5.6386      1.00000
     21       5.7138      1.00000
     22       5.7605      1.00000
     23       5.8911      1.00000
     24       5.9766      1.00000
     25       5.9862      1.00000
     26       6.0286      1.00000
     27       6.1124      1.00000
     28       6.1737      1.00000
     29       6.2265      1.00000
     30       6.2579      1.00000
     31       6.3005      1.00000
     32       6.4015      1.00000
     33       6.4770      1.00000
     34       6.5380      1.00000
     35       6.6604      1.00000
     36       6.6814      1.00000
     37       6.7452      1.00000
     38       6.7754      1.00000
     39       6.8818      1.00000
     40       6.8978      1.00000
     41       6.9097      1.00000
     42       6.9323      1.00000
     43       6.9831      1.00000
     44       7.0267      1.00000
     45       7.0804      1.00000
     46       7.1948      1.00000
     47       7.2208      1.00000
     48       7.2635      1.00000
     49       7.2868      1.00000
     50       7.3587      1.00000
     51       7.3766      1.00000
     52       7.4222      1.00000
     53       7.4617      1.00000
     54       7.5074      1.00000
     55       7.6024      1.00000
     56       7.6457      1.00000
     57       7.7394      1.00001
     58       7.8289      1.00010
     59       7.8650      1.00027
     60       7.8703      1.00030
[...]
     91      11.8615     -0.00000
     92      11.9986     -0.00000
     93      12.6588     -0.00000
     94      13.3196     -0.00000
     95      13.7360     -0.00000
     96      14.8209      0.00000
     97      15.1891      0.00000
     98      15.2842      0.00000
     99      15.3292      0.00000
    100      15.9344      0.00000
    101      16.7219      0.00000
    102      17.0311      0.00000
    103      17.1468      0.00000
    104      17.4864      0.00000
    105      17.8559      0.00000

[...]

 soft charge-density along one line, spin component           2
         0         1         2         3         4         5         6         7         8         9
 total charge-density along one line

------------------------ aborting loop because EDIFF is reached ----------------------------------------

[...]

  FORCE on cell =-STRESS in cart. coord.  units (eV):
  Direction    XX          YY          ZZ          XY          YZ          ZX
  Alpha Z   816.77351   816.77351   816.77351
  Ewald   -4530.18030 -4445.76929 -4483.52762    -2.13876    24.54309   -20.19634
  Hartree  1028.23140  1108.93014  1074.04612    -0.76613    23.31964   -20.19773
  E(xc)    -820.32222  -820.36087  -820.27140     0.00760    -0.06581    -0.01231
  Local     204.62836    40.95037   113.42722     2.09752   -48.01436    40.26882
  n-local  -194.25436  -195.00710  -194.20368     0.00569    -0.21584     0.26219
  augment  2269.36445  2268.86416  2268.55617     0.60282     0.16848    -0.11845
  Kinetic  1225.49001  1225.02910  1224.79242     0.15367     0.40369    -0.31100
  Fock        0.00000     0.00000     0.00000     0.00000     0.00000     0.00000
  Total      -0.26914    -0.58999    -0.40726    -0.03758     0.13889    -0.30482
  in kB      -2.41981    -5.30455    -3.66163    -0.33789     1.24875    -2.74062

 VOLUME and BASIS-vectors are now :
  energy-cutoff  :      520.00
  volume of cell :      178.20
      direct lattice vectors                 reciprocal lattice vectors
     1.772500000  1.772500000 -3.545000000     0.070521862  0.070521862 -0.211565585
     0.000000000 -5.317500000 -1.772500000    -0.017630465 -0.158674189 -0.088152327
    -7.090000000  1.772500000 -1.772500000    -0.123413258  0.017630465 -0.052891396

  length of vectors
     4.341720569  5.605137153  7.520080618     0.233894555  0.182370953  0.135422175

 FORCES acting on ions
    electron-ion (+dipol)            ewald-force                    non-local-force                 convergence-correction
   0.818E+02 -.890E+01 0.541E+02   -.816E+02 0.886E+01 -.541E+02   -.144E+00 -.120E-01 -.128E-01   0.146E-01 0.497E-01 0.186E-01
   0.871E+02 -.565E+01 0.229E+02   -.871E+02 0.565E+01 -.228E+02   -.101E+00 0.337E-01 -.106E+00   0.807E-01 -.399E-01 0.966E-02
   0.177E+02 -.271E+00 0.192E+02   -.177E+02 0.338E+00 -.191E+02   -.349E-01 0.209E-01 -.750E-01   0.594E-01 -.884E-01 -.297E-01
   -.176E+02 0.268E+00 -.192E+02   0.177E+02 -.335E+00 0.191E+02   0.349E-01 -.212E-01 0.751E-01   -.578E-01 0.878E-01 0.292E-01
   -.818E+02 0.893E+01 -.541E+02   0.817E+02 -.889E+01 0.541E+02   0.144E+00 0.123E-01 0.133E-01   -.151E-01 -.547E-01 -.219E-01
   0.751E+02 -.429E+01 0.235E+02   -.749E+02 0.425E+01 -.235E+02   -.216E+00 0.670E-01 -.299E-01   0.247E-01 -.293E-01 -.179E-01
   0.550E+02 -.246E+02 0.278E+02   -.549E+02 0.245E+02 -.278E+02   -.729E-01 0.406E-01 0.127E-01   0.171E-01 0.241E-01 0.121E-01
   -.751E+02 0.432E+01 -.235E+02   0.749E+02 -.427E+01 0.235E+02   0.215E+00 -.674E-01 0.303E-01   -.236E-01 0.251E-01 0.161E-01
   -.871E+02 0.561E+01 -.229E+02   0.871E+02 -.562E+01 0.228E+02   0.101E+00 -.341E-01 0.106E+00   -.803E-01 0.455E-01 -.721E-02
   -.310E+02 -.156E+02 0.916E+01   0.311E+02 0.157E+02 -.922E+01   -.488E-01 -.121E+00 0.378E-01   -.167E-02 -.137E-01 0.320E-01
   0.310E+02 0.156E+02 -.915E+01   -.311E+02 -.157E+02 0.921E+01   0.488E-01 0.120E+00 -.373E-01   -.596E-03 0.148E-01 -.329E-01
   -.550E+02 0.246E+02 -.278E+02   0.549E+02 -.245E+02 0.278E+02   0.730E-01 -.404E-01 -.123E-01   -.143E-01 -.216E-01 -.100E-01
   0.696E+02 -.257E+02 -.124E+02   -.697E+02 0.259E+02 0.126E+02   0.794E-01 -.245E+00 -.160E+00   0.599E-02 0.134E-01 0.813E-02
   0.797E+02 -.679E+01 0.564E+02   -.799E+02 0.680E+01 -.566E+02   0.223E+00 0.322E-01 0.222E+00   0.369E-01 -.460E-01 -.237E-01
   -.696E+02 0.257E+02 0.124E+02   0.697E+02 -.259E+02 -.126E+02   -.785E-01 0.245E+00 0.160E+00   -.769E-02 -.157E-01 -.837E-02
   -.797E+02 0.679E+01 -.564E+02   0.799E+02 -.681E+01 0.566E+02   -.223E+00 -.320E-01 -.222E+00   -.375E-01 0.487E-01 0.253E-01
   -.320E-03 0.724E-03 0.886E-03   -.142E-12 -.782E-13 -.171E-12   0.125E-02 -.135E-02 0.133E-02   0.780E-03 -.192E-03 -.622E-03

 POSITION                                       TOTAL-FORCE (eV/Angst)
     -5.31020     -1.76083     -3.59017         0.003942     -0.003042     -0.000126
     -3.56127      1.77678     -5.32116         0.008266      0.000110     -0.002844
     -3.53800     -3.55239     -3.54480         0.002992      0.000309     -0.004282
     -3.55199     -1.76513     -1.77272        -0.003113     -0.000145      0.004068
     -1.77987     -3.55666     -1.72734        -0.003814      0.003069      0.000325
     -3.52638     -1.77665     -5.32870        -0.000767     -0.004374     -0.004311
     -3.54985      0.00059     -3.53863         0.001915     -0.004958     -0.004948
     -1.79109     -1.76831     -3.53374         0.000809      0.004284      0.004116
     -1.75621     -0.00431     -1.76887        -0.008288     -0.000099      0.002758
      0.01595     -1.76247     -1.79121        -0.007288     -0.001637      0.008200
     -0.01596     -0.01005      0.01874         0.006903      0.001579     -0.007976
     -1.76767      1.77189     -3.55136        -0.001605      0.005045      0.004899
     -5.24420     -0.02159     -5.36658        -0.005343     -0.001927     -0.002500
     -5.28938      1.77167     -3.51586         0.008956     -0.002803     -0.008058
     -0.07325     -3.52341     -3.49589         0.005456      0.002079      0.002596
     -0.02811      0.00086     -3.57420        -0.009023      0.002511      0.008083
    total drift:                                0.001707     -0.000816      0.001598

  FREE ENERGIE OF THE ION-ELECTRON SYSTEM (eV)
  free  energy   TOTEN  =       -99.24516380 eV

  energy  without entropy=      -99.25036032  energy(sigma->0) =      -99.24689597

 d Force = 0.2620658E-03[ 0.149E-03, 0.375E-03]  d Energy = 0.2708445E-03-0.878E-05
 d Force =-0.6476904E+00[-0.655E+00,-0.641E+00]  d Ewald  =-0.6476901E+00-0.216E-06

 Conjugate gradient step on ions:
 trial-energy change:   -0.000271  1 .order   -0.000262   -0.000375   -0.000149
  (g-gl).g = 0.102E-03      g.g   = 0.225E-03  gl.gl    = 0.211E-02
 g(Force)  = 0.225E-03   g(Stress)= 0.000E+00 ortho     =-0.431E-04
 gamma     =   0.04813
 trial     =   1.68367
 opt step  =   2.79147  (harmonic =   2.79147) maximal distance =0.00296813
 next E    =   -99.245204   (d E  =  -0.00031)

 reached required accuracy - stopping structural energy minimisation

 total charge

[...]

 magnetization (x)

# of ion       s       p       d       tot
    1       -0.018  -0.039   0.671   0.614
    2       -0.014  -0.036   0.643   0.593
    3       -0.010  -0.029   0.647   0.608
    4       -0.010  -0.029   0.647   0.608
    5       -0.018  -0.039   0.671   0.614
    6       -0.012  -0.030   0.642   0.600
    7       -0.013  -0.032   0.653   0.609
    8       -0.012  -0.030   0.642   0.600
    9       -0.014  -0.036   0.643   0.593
   10       -0.020  -0.047   0.701   0.634
   11       -0.020  -0.047   0.701   0.634
   12       -0.013  -0.032   0.653   0.609
   13        0.004  -0.018   2.744   2.730
   14        0.003  -0.019   2.744   2.728
   15        0.004  -0.018   2.744   2.730
   16        0.003  -0.019   2.744   2.728
tot         -0.157  -0.501  18.893  18.234