 vasp.5.4.4.18Apr17-6-g9f103f2a35 (build Dec 15 2018 21:27:11) complex

 executed on             LinuxIFC date 2022.03.01  00:50:07

 INCAR:
 POTCAR:    PAW_PBE Ni 02Aug2007
 POTCAR:    PAW_PBE O 08Apr2002

 POTCAR:    PAW_PBE Ni 02Aug2007
   VRHFIN =Ni:

   TITEL  = PAW_PBE Ni 02Aug2007
   POMASS =   58.690; ZVAL   =   10.000    mass and valenz
   ENMAX  =  269.532; ENMIN  =  202.149 eV

 POTCAR:    PAW_PBE O 08Apr2002
   VRHFIN =O: s2p4

   TITEL  = PAW_PBE O 08Apr2002
   POMASS =   16.000; ZVAL   =    6.000    mass and valenz
   ENMAX  =  400.000; ENMIN  =  300.000 eV

 Optimization of the real space projectors (new method)

 maximal supplied QI-value         = 16.25
 optimisation between [QCUT,QGAM] = [ 11.54, 23.24] = [ 37.28,151.24] Ry
 Optimized for a Real-space Cutoff    1.45 Angstroem

   l    n(q)    QCUT    max X(q) W(low)/X(q) W(high)/X(q)  e(spline)
   2      9    11.539    60.317    0.19E-03    0.47E-04    0.16E-06
   2      9    11.539    55.921    0.19E-03    0.48E-04    0.16E-06
   0     10    11.539    51.690    0.80E-04    0.50E-04    0.24E-06
   0     10    11.539    30.015    0.73E-04    0.45E-04    0.22E-06
   1     10    11.539    18.849    0.87E-04    0.16E-03    0.71E-07
   1     10    11.539    14.624    0.73E-04    0.13E-03    0.64E-07
 Optimization of the real space projectors (new method)

 maximal supplied QI-value         = 24.76
 optimisation between [QCUT,QGAM] = [ 11.64, 23.27] = [ 37.91,151.63] Ry
 Optimized for a Real-space Cutoff    1.14 Angstroem

   l    n(q)    QCUT    max X(q) W(low)/X(q) W(high)/X(q)  e(spline)
   0      8    11.635    20.381    0.10E-03    0.33E-03    0.24E-06
   0      8    11.635    15.268    0.11E-03    0.35E-03    0.26E-06
   1      7    11.635     5.964    0.24E-03    0.31E-03    0.30E-06
   1      7    11.635     5.382    0.22E-03    0.25E-03    0.26E-06
  PAW_PBE Ni 02Aug2007                  :
  PAW_PBE O 08Apr2002                   :

 POSCAR: POSCAR
  positions in direct lattice
  velocities in cartesian coordinates
 exchange correlation table for  LEXCH =        8
   RHO(1)=    0.500       N(1)  =     2000
   RHO(2)=  100.500       N(2)  =     4000

 VTST: version 3.2, (02/03/18)

 CHAIN: initializing optimizer

 OPT: Using VASP Conjugate-Gradient optimizer
 CHAIN: Read ICHAIN            0

 POSCAR: POSCAR
  positions in direct lattice
  velocities in cartesian coordinates

 ion  position               nearest neighbor table
   1  0.113  0.226  0.095-  15 2.49  19 2.49   3 2.49   5 2.49  13 2.49  17 2.49  21 2.49  49 2.49
                            61 2.49
   2  0.109  0.227  0.382-  65 1.82  14 2.40  18 2.44  20 2.45  62 2.48  22 2.51  24 2.51   4 2.51
                             6 2.52  50 2.56
   3  0.196  0.142  0.191-   4 2.44   8 2.45  24 2.45   5 2.49  49 2.49   1 2.49   7 2.49  15 2.49
                            19 2.49  23 2.49  51 2.49  63 2.49
   4  0.030  0.059  0.285-  62 2.42   3 2.44  15 2.44  63 2.44   8 2.48  24 2.48  52 2.50  20 2.50
                            64 2.50  16 2.50  50 2.51   2 2.51
   5  0.363  0.226  0.095-   3 2.49  23 2.49   7 2.49   9 2.49   1 2.49  21 2.49  25 2.49  49 2.49
                            53 2.49
   6  0.360  0.225  0.390-  69 1.82  65 1.84  10 2.52  50 2.52   2 2.52  22 2.53  54 2.53  26 2.53
                            28 2.60  24 2.61   8 2.62
   7  0.446  0.142  0.191-  12 2.45   8 2.46   9 2.49  53 2.49   5 2.49   3 2.49  11 2.49  27 2.49
                            51 2.49  23 2.49  55 2.49  28 2.50
   8  0.280  0.061  0.286-  54 2.41   3 2.45   7 2.46  51 2.47  24 2.47   4 2.48  28 2.48  52 2.50
                            12 2.50  56 2.51  50 2.51   6 2.62
   9  0.613  0.226  0.095-   7 2.49  27 2.49  11 2.49  13 2.49   5 2.49  25 2.49  29 2.49  53 2.49
                            57 2.49
  10  0.614  0.225  0.389-  69 1.82  68 1.84   6 2.52  26 2.52  58 2.53  54 2.53  14 2.53  30 2.53
                            28 2.59  32 2.61  12 2.61
  11  0.696  0.142  0.191-  16 2.44  12 2.45  32 2.45  13 2.49  57 2.49   9 2.49  15 2.49   7 2.49
                            27 2.49  55 2.49  31 2.49  59 2.49
  12  0.531  0.061  0.286-  54 2.42  11 2.45   7 2.45  55 2.46  32 2.47  16 2.48  28 2.48  60 2.50
                             8 2.50  56 2.51  58 2.51  10 2.61
  13  0.863  0.226  0.095-  11 2.49  31 2.49  15 2.49   9 2.49   1 2.49  29 2.49  17 2.49  57 2.49
                            61 2.49
  14  0.868  0.227  0.382-  68 1.82   2 2.40  18 2.44  20 2.45  62 2.48  30 2.50  32 2.51  16 2.51
                            10 2.53  58 2.56
  15  0.946  0.142  0.191-   4 2.44  16 2.44  20 2.47   1 2.49  61 2.49  13 2.49   3 2.49  11 2.49
                            31 2.49  59 2.49  19 2.49  63 2.49
  16  0.779  0.059  0.285-  62 2.42  11 2.44  15 2.44  59 2.44  32 2.48  12 2.48  60 2.50  20 2.50
                             4 2.50  64 2.50  58 2.51  14 2.51
  17  0.113  0.476  0.095-  31 2.49  35 2.49  19 2.49  21 2.49  29 2.49  13 2.49  33 2.49   1 2.49
                            37 2.49
  18  0.111  0.473  0.383-  67 1.83   2 2.44  14 2.44  20 2.47  22 2.48  30 2.48  36 2.53  40 2.53
                            34 2.54  38 2.54
  19  0.196  0.392  0.191-  40 2.44  24 2.46  20 2.47  21 2.49   1 2.49  17 2.49  31 2.49  23 2.49
                            15 2.49  35 2.49  39 2.49   3 2.49
  20  0.030  0.310  0.286-   2 2.45  14 2.45  31 2.47  19 2.47  18 2.47  15 2.47  36 2.49  40 2.49
                            16 2.50   4 2.50  24 2.50  32 2.50
  21  0.363  0.476  0.095-  19 2.49  39 2.49  23 2.49  25 2.49  17 2.49   5 2.49  37 2.49   1 2.49
                            41 2.49
  22  0.361  0.477  0.377-  40 2.41  44 2.41  24 2.41  18 2.48  38 2.48   2 2.51  42 2.51  26 2.53
                             6 2.53
  23  0.446  0.392  0.191-  24 2.46  44 2.46  25 2.49   5 2.49  21 2.49  27 2.49  19 2.49   3 2.49
                            39 2.49  43 2.49   7 2.49  28 2.49
  24  0.280  0.308  0.286-  22 2.41   3 2.45  23 2.46  19 2.46   8 2.47  28 2.48   4 2.48  20 2.50
                            44 2.50  40 2.51   2 2.51   6 2.61
  25  0.613  0.476  0.095-  23 2.49  43 2.49  27 2.49  29 2.49  21 2.49   9 2.49  41 2.49   5 2.49
                            45 2.49
  26  0.614  0.478  0.390-  69 1.82  66 1.84  42 2.52  46 2.52  10 2.52  22 2.53  30 2.53   6 2.53
                            28 2.60  44 2.61  48 2.62
  27  0.696  0.392  0.191-  32 2.45  48 2.46  29 2.49   9 2.49  25 2.49  23 2.49  31 2.49   7 2.49
                            43 2.49  47 2.49  11 2.49  28 2.50
  28  0.529  0.309  0.288-  44 2.48  24 2.48   8 2.48  48 2.48  12 2.48  32 2.48  23 2.49  27 2.50
                             7 2.50  10 2.59   6 2.60  26 2.60
  29  0.863  0.476  0.095-  27 2.49  47 2.49  31 2.49  25 2.49  17 2.49  13 2.49  33 2.49  45 2.49
                             9 2.49
  30  0.865  0.477  0.377-  36 2.41  48 2.41  32 2.42  34 2.48  18 2.48  14 2.50  46 2.51  10 2.53
                            26 2.53
  31  0.946  0.392  0.191-  36 2.44  32 2.46  20 2.47  17 2.49  13 2.49  29 2.49  27 2.49  19 2.49
                            15 2.49  35 2.49  11 2.49  47 2.49
  32  0.778  0.308  0.286-  30 2.42  11 2.45  27 2.45  31 2.46  12 2.47  16 2.48  28 2.48  20 2.50
                            48 2.50  36 2.51  14 2.51  10 2.61
  33  0.113  0.726  0.095-  47 2.49  51 2.49  35 2.49  37 2.49  45 2.49  29 2.49  49 2.49  17 2.49
                            53 2.49
  34  0.111  0.727  0.383-  67 1.83  46 2.44  50 2.44  52 2.47  54 2.48  30 2.48  56 2.53  36 2.53
                            38 2.54  18 2.54
  35  0.196  0.642  0.191-  40 2.44  36 2.44  56 2.44  37 2.49  17 2.49  33 2.49  47 2.49  39 2.49
                            31 2.49  51 2.49  55 2.49  19 2.49
  36  0.030  0.559  0.285-  30 2.41  35 2.44  47 2.44  31 2.44  20 2.49  40 2.49  56 2.49  52 2.49
                            32 2.51  48 2.51  18 2.53  34 2.53
  37  0.363  0.726  0.095-  35 2.49  55 2.49  39 2.49  41 2.49  33 2.49  21 2.49  53 2.49  17 2.49
                            57 2.49
  38  0.366  0.727  0.383-  67 1.83  42 2.44  58 2.44  60 2.47  22 2.48  54 2.48  56 2.53  40 2.53
                            34 2.54  18 2.54
  39  0.446  0.642  0.191-  40 2.44  44 2.46  60 2.47  41 2.49  21 2.49  37 2.49  35 2.49  43 2.49
                            23 2.49  55 2.49  59 2.49  19 2.49
  40  0.279  0.559  0.285-  22 2.41  35 2.44  39 2.44  19 2.44  36 2.49  56 2.49  20 2.49  60 2.49
                            44 2.51  24 2.51  18 2.53  38 2.53
  41  0.613  0.726  0.095-  39 2.49  59 2.49  43 2.49  45 2.49  37 2.49  25 2.49  57 2.49  21 2.49
                            61 2.49
  42  0.611  0.730  0.382-  66 1.82  58 2.40  38 2.44  60 2.45  62 2.48  22 2.51  44 2.51  64 2.51
                            26 2.52  46 2.56
  43  0.696  0.642  0.191-  64 2.44  48 2.45  44 2.45  45 2.49  25 2.49  41 2.49  39 2.49  47 2.49
                            27 2.49  59 2.49  63 2.49  23 2.49
  44  0.531  0.559  0.286-  22 2.41  43 2.45  23 2.46  39 2.46  48 2.47  28 2.48  64 2.48  60 2.50
                            24 2.50  40 2.51  42 2.51  26 2.61
  45  0.863  0.726  0.095-  43 2.49  63 2.49  47 2.49  41 2.49  33 2.49  29 2.49  49 2.49  61 2.49
                            25 2.49
  46  0.868  0.730  0.382-  66 1.82  50 2.40  34 2.44  52 2.45  62 2.48  30 2.51  48 2.51  64 2.51
                            26 2.52  42 2.56
  47  0.946  0.642  0.191-  36 2.44  48 2.47  52 2.47  33 2.49  29 2.49  45 2.49  43 2.49  35 2.49
                            31 2.49  51 2.49  27 2.49  63 2.49
  48  0.778  0.559  0.286-  30 2.41  43 2.45  27 2.46  47 2.47  44 2.47  64 2.48  28 2.48  52 2.50
                            32 2.50  36 2.51  46 2.51  26 2.62
  49  0.113  0.976  0.095-  63 2.49   3 2.49  51 2.49  61 2.49  53 2.49   1 2.49   5 2.49  33 2.49
                            45 2.49
  50  0.109  0.971  0.382-  65 1.82  46 2.40  34 2.44  52 2.45  62 2.48  54 2.51   8 2.51   4 2.51
                             6 2.52   2 2.56
  51  0.196  0.892  0.191-  56 2.44   8 2.47  52 2.47  53 2.49  33 2.49  49 2.49  55 2.49  63 2.49
                            35 2.49  47 2.49   3 2.49   7 2.49
  52  0.030  0.809  0.286-  46 2.45  50 2.45  51 2.47  47 2.47  34 2.47  63 2.47  56 2.49  36 2.49
                             4 2.50  64 2.50   8 2.50  48 2.50
  53  0.363  0.976  0.095-  51 2.49   7 2.49  55 2.49  49 2.49  57 2.49   5 2.49   9 2.49  33 2.49
                            37 2.49
  54  0.361  0.973  0.377-  56 2.41   8 2.41  12 2.42  34 2.48  38 2.48  58 2.50  50 2.51  10 2.53
                             6 2.53
  55  0.446  0.892  0.191-  56 2.44  12 2.46  60 2.47  57 2.49  37 2.49  53 2.49  59 2.49  51 2.49
                            11 2.49  39 2.49   7 2.49  35 2.49
  56  0.279  0.809  0.285-  54 2.41  35 2.44  51 2.44  55 2.44  60 2.49  52 2.49  36 2.49  40 2.49
                            12 2.51   8 2.51  38 2.53  34 2.53
  57  0.613  0.976  0.095-  55 2.49  11 2.49  59 2.49  53 2.49  61 2.49   9 2.49  13 2.49  37 2.49
                            41 2.49
  58  0.611  0.971  0.382-  68 1.82  42 2.40  38 2.44  60 2.45  62 2.48  54 2.50  12 2.51  16 2.51
                            10 2.53  14 2.56
[...]
   -.100E+01 0.580E+00 0.320E+04   0.103E+01 -.599E+00 -.320E+04   -.183E-01 0.101E-01 -.128E+01   -.277E-02 0.269E-02 0.788E-05
   0.248E+02 -.143E+02 -.285E+04   -.253E+02 0.146E+02 0.285E+04   0.490E+00 -.284E+00 0.322E+01   -.213E-02 -.574E-03 0.245E-03
   -.651E+01 0.377E+01 0.120E+04   0.657E+01 -.381E+01 -.120E+04   -.315E-01 0.185E-01 -.194E+00   -.187E-02 0.146E-02 -.327E-02
   -.102E+02 0.367E+01 -.831E+03   0.104E+02 -.371E+01 0.831E+03   -.227E+00 0.460E-01 0.322E+00   -.354E-02 0.301E-03 -.224E-02
   0.314E-01 0.123E+01 0.320E+04   -.325E-01 -.127E+01 -.320E+04   -.246E-03 0.109E-01 -.145E+01   0.130E-02 0.212E-04 -.162E-02
   0.375E-01 -.312E+02 -.282E+04   -.380E-01 0.313E+02 0.282E+04   0.179E-02 -.113E+00 -.458E+00   -.200E-03 0.211E-02 0.121E-02
   0.687E+01 0.372E+01 0.120E+04   -.693E+01 -.376E+01 -.120E+04   0.294E-01 0.164E-01 -.194E+00   0.175E-02 -.204E-03 -.559E-02
   0.487E+00 -.253E+00 -.874E+03   -.481E+00 0.249E+00 0.875E+03   -.386E-02 0.257E-02 0.254E-01   -.100E-02 0.443E-03 -.275E-02
   0.996E+00 0.553E+00 0.320E+04   -.103E+01 -.570E+00 -.320E+04   0.186E-01 0.101E-01 -.127E+01   0.241E-02 0.321E-03 -.122E-02
   -.247E+02 -.142E+02 -.285E+04   0.252E+02 0.145E+02 0.285E+04   -.495E+00 -.290E+00 0.322E+01   0.211E-02 0.230E-02 0.142E-02
   0.121E+01 0.309E+01 0.120E+04   -.112E+01 -.311E+01 -.121E+04   -.964E-01 0.888E-02 -.159E+00   0.220E-02 0.197E-02 -.469E-02
   0.989E+01 0.356E+01 -.829E+03   -.101E+02 -.360E+01 0.829E+03   0.230E+00 0.470E-01 0.317E+00   0.297E-02 -.616E-04 -.390E-02
   0.347E+00 -.202E+00 0.320E+04   -.320E+00 0.186E+00 -.320E+04   -.383E-01 0.217E-01 -.132E+01   0.292E-02 -.944E-03 0.615E-04
   0.916E+02 -.529E+02 -.288E+04   -.933E+02 0.539E+02 0.288E+04   0.171E+01 -.990E+00 0.507E+00   -.159E-02 -.376E-03 -.702E-04
   -.179E-01 0.273E-02 0.121E+04   0.147E-01 -.172E-02 -.121E+04   0.304E-03 0.103E-03 -.353E+00   0.122E-02 0.345E-03 -.523E-02
   -.500E+01 -.294E+01 -.815E+03   0.494E+01 0.290E+01 0.814E+03   0.437E-01 0.259E-01 0.462E+00   0.258E-02 0.114E-02 -.393E-02
   -.357E+00 -.176E+00 0.320E+04   0.329E+00 0.158E+00 -.320E+04   0.386E-01 0.217E-01 -.132E+01   -.230E-02 0.482E-03 0.103E-02
   -.916E+02 -.530E+02 -.288E+04   0.933E+02 0.539E+02 0.288E+04   -.172E+01 -.991E+00 0.506E+00   -.740E-03 -.217E-02 -.627E-03
   -.344E+01 -.367E+00 0.120E+04   0.342E+01 0.465E+00 -.121E+04   0.402E-01 -.874E-01 -.158E+00   -.353E-02 0.155E-02 -.350E-02
   0.491E+01 -.282E+01 -.815E+03   -.485E+01 0.278E+01 0.814E+03   -.453E-01 0.267E-01 0.462E+00   -.128E-02 0.544E-05 -.536E-02
   0.111E+00 0.974E+00 0.320E+04   -.148E+00 -.963E+00 -.320E+04   0.234E-01 0.123E-02 -.145E+01   -.287E-02 0.565E-03 -.242E-03
   0.113E+03 -.558E+02 -.285E+04   -.115E+03 0.566E+02 0.285E+04   0.192E+01 -.871E+00 0.472E+00   0.172E-02 0.537E-03 -.722E-03
   0.129E+00 0.642E+01 0.121E+04   -.130E+00 -.645E+01 -.121E+04   -.143E-03 -.707E-02 -.238E+00   -.124E-02 0.924E-03 -.300E-02
   -.825E+01 0.700E+01 -.831E+03   0.839E+01 -.717E+01 0.831E+03   -.154E+00 0.174E+00 0.322E+00   -.194E-02 0.231E-02 -.355E-02
   -.102E+00 0.948E+00 0.320E+04   0.139E+00 -.935E+00 -.320E+04   -.236E-01 0.163E-02 -.145E+01   0.225E-02 -.113E-02 -.162E-02
   -.113E+03 -.556E+02 -.285E+04   0.115E+03 0.565E+02 0.285E+04   -.192E+01 -.868E+00 0.471E+00   0.675E-03 0.256E-02 0.127E-03
   0.345E+01 -.493E+00 0.120E+04   -.343E+01 0.593E+00 -.121E+04   -.412E-01 -.879E-01 -.159E+00   0.355E-02 0.348E-03 -.460E-02
   0.840E+01 0.690E+01 -.830E+03   -.854E+01 -.707E+01 0.830E+03   0.154E+00 0.171E+00 0.323E+00   0.635E-03 0.289E-02 -.256E-02
   -.873E+00 -.389E+00 0.320E+04   0.880E+00 0.351E+00 -.320E+04   -.135E-01 0.190E-01 -.145E+01   0.292E-02 -.226E-02 -.169E-02
   -.821E+01 0.126E+03 -.285E+04   0.842E+01 -.128E+03 0.285E+04   -.210E+00 0.210E+01 0.473E+00   -.298E-02 -.779E-03 0.196E-03
   0.215E+01 -.277E+01 0.120E+04   -.222E+01 0.270E+01 -.121E+04   0.557E-01 0.801E-01 -.159E+00   0.259E-02 -.305E-02 -.484E-02
   -.373E+01 0.214E+01 -.837E+03   0.371E+01 -.212E+01 0.839E+03   0.201E-01 -.115E-01 -.118E+01   0.211E-03 -.506E-04 -.121E-02
   0.212E-01 -.114E+01 0.320E+04   -.232E-01 0.118E+01 -.320E+04   0.161E-03 -.218E-01 -.127E+01   0.183E-02 -.264E-02 -.663E-03
   -.208E-01 0.285E+02 -.285E+04   0.195E-01 -.291E+02 0.285E+04   0.461E-02 0.573E+00 0.322E+01   -.237E-02 -.207E-02 0.905E-03
   -.206E+01 -.261E+01 0.121E+04   0.213E+01 0.254E+01 -.121E+04   -.556E-01 0.794E-01 -.159E+00   -.760E-04 -.286E-02 -.581E-02
   0.531E-01 0.579E+01 -.815E+03   -.528E-01 -.571E+01 0.814E+03   -.107E-03 -.503E-01 0.462E+00   -.245E-03 -.287E-02 -.581E-02
   0.868E+00 -.355E+00 0.320E+04   -.874E+00 0.315E+00 -.320E+04   0.130E-01 0.189E-01 -.145E+01   -.283E-02 -.426E-03 -.367E-03
   0.764E+01 0.126E+03 -.285E+04   -.783E+01 -.128E+03 0.285E+04   0.200E+00 0.209E+01 0.469E+00   0.278E-02 -.108E-02 -.583E-03
   0.539E+01 0.318E+01 0.121E+04   -.550E+01 -.324E+01 -.121E+04   0.735E-01 0.435E-01 -.214E+00   -.329E-02 -.901E-03 -.256E-02
   0.361E+01 0.226E+01 -.837E+03   -.359E+01 -.225E+01 0.839E+03   -.186E-01 -.105E-01 -.118E+01   0.403E-03 -.136E-02 -.561E-02
   -.160E-01 0.724E-02 0.320E+04   0.174E-01 -.665E-02 -.320E+04   0.424E-03 -.744E-03 -.121E+01   -.192E-02 -.278E-03 -.159E-02
   0.260E+00 -.216E+00 -.288E+04   -.271E+00 0.222E+00 0.287E+04   0.103E-01 -.673E-02 0.339E+01   0.273E-02 0.248E-03 0.800E-04
   -.540E+01 0.310E+01 0.121E+04   0.551E+01 -.316E+01 -.121E+04   -.740E-01 0.429E-01 -.213E+00   0.771E-03 -.121E-02 -.184E-02
   0.640E-01 0.800E+01 -.809E+03   -.632E-01 -.793E+01 0.808E+03   -.490E-03 -.550E-01 0.481E+00   -.374E-03 0.109E-02 -.145E-02
   0.492E+02 0.285E+02 -.230E+04   -.508E+02 -.294E+02 0.233E+04   0.160E+01 0.933E+00 -.293E+02   -.189E-02 -.513E-03 -.131E-03
   -.971E-01 -.569E+02 -.230E+04   0.104E+00 0.587E+02 0.233E+04   -.807E-02 -.185E+01 -.293E+02   0.638E-03 0.101E-02 0.562E-03
   -.126E-01 -.675E-02 -.231E+04   0.172E-01 0.783E-02 0.233E+04   -.360E-02 0.804E-03 -.284E+02   -.102E-02 -.751E-03 0.385E-03
   -.487E+02 0.281E+02 -.230E+04   0.502E+02 -.290E+02 0.233E+04   -.150E+01 0.867E+00 -.292E+02   0.109E-02 0.576E-03 0.190E-02
   -.465E+00 0.188E+00 -.231E+04   0.533E+00 -.219E+00 0.234E+04   -.688E-01 0.320E-01 -.310E+02   -.296E-03 0.480E-03 0.163E-02
   -.136E-01 0.162E-01 0.155E+03   -.212E-13 0.881E-12 -.728E-11   0.127E-01 -.100E-01 -.155E+03   -.753E-03 0.480E-03 -.120E+00

 POSITION                                       TOTAL-FORCE (eV/Angst)
     -0.00000      1.94796      2.00000        -0.020351      0.006816      0.254843
     -0.04857      1.96193      8.05790         0.025155     -0.021151     -0.017763
      1.24593      1.22862      4.03457         0.024865      0.017856     -0.213883
      0.00125      0.51162      6.00489        -0.006597     -0.003626     -0.019201
      2.49184      1.94796      2.00000         0.025526      0.014158      0.246361
      2.47116      1.94052      8.22576        -0.017276     -0.011144     -0.001348
      3.73777      1.22862      4.03457        -0.003572      0.033403     -0.110313
      2.48654      0.52143      6.02682         0.005937     -0.007158     -0.007368
      4.98369      1.94796      2.00000        -0.025710      0.014283      0.245877
      4.99398      1.94239      8.21912         0.025866     -0.014475      0.011039
      6.22962      1.22862      4.03457        -0.029098      0.017023     -0.217059
      4.98556      0.52141      6.02602        -0.004292     -0.006873     -0.005438
      7.47553      1.94796      2.00000         0.020251      0.006698      0.255006
      7.51601      1.96298      8.05724        -0.020835     -0.023113     -0.016963
      8.72146      1.22862      4.03457        -0.001936      0.050860     -0.268534
      7.47134      0.51189      6.00480         0.007644     -0.004294     -0.019077
     -1.24593      4.10596      2.00000         0.000147     -0.010923      0.258037
     -1.24847      4.07898      8.07231        -0.000128      0.047238     -0.005352
      0.00000      3.38662      4.03457        -0.003083     -0.018247     -0.246245
     -1.24752      2.67284      6.04299         0.000302     -0.001919     -0.014252
      1.24592      4.10596      2.00000         0.009524     -0.006052      0.190739
      1.22343      4.11935      7.95188        -0.003360      0.001906      0.018871
      2.49185      3.38662      4.03457         0.022778     -0.013019     -0.107477
      1.25184      2.65951      6.02735        -0.002137      0.008047     -0.007876
      3.73776      4.10596      2.00000         0.000021     -0.030013      0.246321
      3.73428      4.12869      8.22535         0.001178      0.021107     -0.000869
      4.98369      3.38662      4.03457        -0.030436     -0.013356     -0.110285
      3.73552      2.66882      6.07317         0.001402     -0.000721      0.007018
      6.22961      4.10596      2.00000        -0.009696     -0.006151      0.190950
      6.24668      4.11982      7.95100         0.003548      0.001084      0.020581
      7.47554      3.38662      4.03457         0.000438     -0.017245     -0.249067
      6.22028      2.65987      6.02603         0.003717      0.007291     -0.005386
     -2.49185      6.26396      2.00000        -0.009083      0.004664      0.258129
     -2.51909      6.28017      8.07240         0.040536     -0.023512     -0.005000
     -1.24592      5.54462      4.03457        -0.001599      0.001347     -0.274052
     -2.49294      4.82620      6.00545        -0.013691     -0.007737     -0.007798
     -0.00000      6.26396      2.00000         0.009071      0.004491      0.257952
      0.02252      6.28033      8.07220        -0.040457     -0.023300     -0.005259
      1.24593      5.54462      4.03457         0.014367      0.012215     -0.246405
     -0.00119      4.82616      6.00549         0.013132     -0.007569     -0.008182
      2.49184      6.26396      2.00000        -0.016575      0.013356      0.254847
      2.45585      6.29969      8.05787         0.030988     -0.011061     -0.017555
      3.73777      5.54462      4.03457        -0.002864     -0.030093     -0.214114
      2.50166      4.82431      6.02730        -0.007964     -0.002325     -0.007844
      4.98369      6.26396      2.00000         0.016399      0.013217      0.254997
      5.01433      6.29867      8.05723        -0.029865     -0.009031     -0.016863
      6.22962      5.54462      4.03457        -0.017781      0.012079     -0.247176
      4.97077      4.82416      6.02674         0.009240     -0.001666     -0.007130
     -3.73777      8.42196      2.00000        -0.003750     -0.021634      0.255018
     -3.75203      8.37897      8.05750        -0.007365      0.029950     -0.017516
     -2.49184      7.70262      4.03457        -0.018945      0.010089     -0.247196
     -3.73479      6.98187      6.04292        -0.001954      0.001053     -0.013565
     -1.24593      8.42196      2.00000         0.000016      0.010610      0.190952
     -1.24905      8.40094      7.95115         0.000946     -0.003632      0.020273
      0.00000      7.70262      4.03457         0.015329      0.008717     -0.249181
     -1.24708      6.98414      6.00548        -0.000089      0.015795     -0.007838
      1.24592      8.42196      2.00000         0.003823     -0.021712      0.254994
      1.25345      8.38006      8.05728         0.009892      0.029901     -0.016434
      2.49185      7.70262      4.03457        -0.044787     -0.023251     -0.268759
      1.24046      6.98221      6.04293         0.001931      0.000811     -0.013912
      3.73776      8.42196      2.00000        -0.000069     -0.000523      0.190286
      3.73438      8.42424      7.95623         0.001490     -0.000677      0.025992
      4.98369      7.70262      4.03457         0.041332     -0.023501     -0.268764
      3.73653      6.98129      6.00484        -0.000026      0.007619     -0.019210
      1.11649      1.15784      9.20383        -0.004630     -0.001707     -0.017091
      3.73513      5.69320      9.20376        -0.000088      0.005801     -0.016706
     -1.24818      5.54639      9.18071         0.000005      0.001034     -0.042562
      6.34689      1.16145      9.20099         0.014355     -0.008789     -0.014284
      3.73454      2.67017      9.31332        -0.001064      0.000684      0.005069
    total drift:                               -0.001597      0.006710      0.035992

  FREE ENERGIE OF THE ION-ELECTRON SYSTEM (eV)
  free  energy   TOTEN  =      -382.70475365 eV

  energy  without entropy=     -382.63350667  energy(sigma->0) =     -382.68100466

 d Force = 0.1798376E-02[ 0.589E-04, 0.354E-02]  d Energy = 0.2469157E-02-0.671E-03
 d Force =-0.2982881E+02[-0.299E+02,-0.298E+02]  d Ewald  =-0.2982881E+02-0.122E-05

 stress matrix after NEB project (eV)
    -31.48348     -0.06319      0.14730
     -0.06319    -31.58173     -0.11096
      0.14730     -0.11096     -9.03221
  FORCES: max atom, RMS     0.047540    0.018972
  FORCE total and by dimension    0.157596    0.047238
  Stress total and by dimension   45.500237   31.581728
 Steepest descent step on ions:
 trial-energy change:   -0.002469  1 .order   -0.001798   -0.003538   -0.000059
  (g-gl).g = 0.354E-02      g.g   = 0.354E-02  gl.gl    = 0.000E+00
 g(Force)  = 0.354E-02   g(Stress)= 0.000E+00 ortho     = 0.000E+00
 gamma     =   0.00000
 trial     =   1.00000
 opt step  =   1.00782  (harmonic =   1.01694) maximal distance =0.00588972
 next E    =  -382.704754   (d E  =  -0.00247)

 reached required accuracy - stopping structural energy minimisation
 writing wavefunctions

 total charge

[...]

 magnetization (x)

# of ion       s       p       d       tot
    1       -0.009  -0.025   0.706   0.672
    2       -0.003  -0.012   0.477   0.462
    3       -0.007  -0.025   0.759   0.728
    4       -0.007  -0.023   0.724   0.694
    5       -0.007  -0.025   0.712   0.679
    6       -0.003  -0.007   0.183   0.172
    7       -0.006  -0.024   0.745   0.714
    8       -0.005  -0.023   0.718   0.690
    9       -0.007  -0.025   0.711   0.679
   10       -0.004  -0.008   0.183   0.172
   11       -0.007  -0.025   0.760   0.728
   12       -0.005  -0.023   0.718   0.690
   13       -0.009  -0.025   0.706   0.672
   14       -0.003  -0.012   0.477   0.462
   15       -0.006  -0.025   0.729   0.699
   16       -0.007  -0.023   0.724   0.694
   17       -0.005  -0.024   0.726   0.697
   18       -0.002  -0.012   0.579   0.565
   19       -0.005  -0.025   0.729   0.699
   20       -0.005  -0.020   0.577   0.552
   21       -0.003  -0.025   0.746   0.719
   22       -0.009  -0.012   0.777   0.757
   23       -0.006  -0.024   0.744   0.714
   24       -0.005  -0.023   0.718   0.690
   25       -0.007  -0.025   0.712   0.679
   26       -0.003  -0.007   0.183   0.172
   27       -0.006  -0.024   0.745   0.714
   28       -0.006  -0.019   0.702   0.677
   29       -0.002  -0.025   0.746   0.719
   30       -0.009  -0.012   0.777   0.756
   31       -0.005  -0.025   0.728   0.698
   32       -0.005  -0.023   0.718   0.690
   33       -0.005  -0.024   0.726   0.697
   34       -0.002  -0.012   0.579   0.565
   35       -0.005  -0.024   0.752   0.722
   36       -0.007  -0.023   0.718   0.689
   37       -0.005  -0.024   0.726   0.697
   38       -0.002  -0.012   0.579   0.565
   39       -0.005  -0.025   0.729   0.699
   40       -0.007  -0.023   0.719   0.689
   41       -0.009  -0.025   0.706   0.672
   42       -0.003  -0.012   0.477   0.462
   43       -0.007  -0.025   0.759   0.728
   44       -0.005  -0.023   0.718   0.690
   45       -0.009  -0.025   0.706   0.672
   46       -0.003  -0.012   0.477   0.462
   47       -0.005  -0.025   0.729   0.699
   48       -0.005  -0.023   0.718   0.690
   49       -0.009  -0.025   0.706   0.672
   50       -0.003  -0.012   0.477   0.462
   51       -0.005  -0.025   0.729   0.699
   52       -0.005  -0.020   0.577   0.552
   53       -0.002  -0.025   0.746   0.719
   54       -0.009  -0.012   0.777   0.756
   55       -0.005  -0.025   0.728   0.698
   56       -0.007  -0.023   0.718   0.689
   57       -0.009  -0.025   0.706   0.672
   58       -0.003  -0.012   0.477   0.462
   59       -0.006  -0.025   0.729   0.699
   60       -0.005  -0.020   0.577   0.552
   61       -0.000  -0.026   0.741   0.715
   62       -0.007  -0.015   0.761   0.739
   63       -0.006  -0.025   0.729   0.699
   64       -0.007  -0.023   0.724   0.694
   65        0.001   0.070   0.000   0.072
   66        0.001   0.070   0.000   0.072
   67        0.002   0.118   0.000   0.121
   68        0.001   0.070   0.000   0.071
   69        0.001   0.012   0.000   0.013
tot         -0.340  -0.993  42.658  41.325