 vasp.5.4.4.18Apr17-6-g9f103f2a35 (build Dec 15 2018 21:27:54) gamma-only

 executed on             LinuxIFC date 2022.03.06  13:17:06

 INCAR:
 POTCAR:    PAW_PBE Fe 06Sep2000
 POTCAR:    PAW_PBE O 08Apr2002
 POTCAR:    PAW_PBE H 15Jun2001

 POTCAR:    PAW_PBE Fe 06Sep2000
   VRHFIN =Fe:  d7 s1

   TITEL  = PAW_PBE Fe 06Sep2000
   POMASS =   55.847; ZVAL   =    8.000    mass and valenz
   ENMAX  =  267.882; ENMIN  =  200.911 eV

 POTCAR:    PAW_PBE O 08Apr2002
   VRHFIN =O: s2p4

   TITEL  = PAW_PBE O 08Apr2002
   POMASS =   16.000; ZVAL   =    6.000    mass and valenz
   ENMAX  =  400.000; ENMIN  =  300.000 eV

 POTCAR:    PAW_PBE H 15Jun2001
   VRHFIN =H: ultrasoft test

   TITEL  = PAW_PBE H 15Jun2001
   POMASS =    1.000; ZVAL   =    1.000    mass and valenz
   ENMAX  =  250.000; ENMIN  =  200.000 eV

 Optimization of the real space projectors (new method)

 maximal supplied QI-value         = 16.25
 optimisation between [QCUT,QGAM] = [ 11.54, 23.24] = [ 37.28,151.24] Ry
 Optimized for a Real-space Cutoff    1.53 Angstroem

   l    n(q)    QCUT    max X(q) W(low)/X(q) W(high)/X(q)  e(spline)
   2     10    11.539    80.901    0.11E-03    0.14E-03    0.21E-06
   2     10    11.539    75.754    0.11E-03    0.14E-03    0.22E-06
   0     11    11.539    58.752    0.52E-04    0.18E-04    0.33E-06
   0     11    11.539    30.679    0.44E-04    0.16E-04    0.30E-06
   1     10    11.539    17.977    0.53E-04    0.29E-04    0.13E-06
   1     10    11.539    13.559    0.44E-04    0.25E-04    0.11E-06
 Optimization of the real space projectors (new method)

[...]

   l    n(q)    QCUT    max X(q) W(low)/X(q) W(high)/X(q)  e(spline)
   0      8    11.635    20.381    0.10E-03    0.33E-03    0.24E-06
   0      8    11.635    15.268    0.11E-03    0.35E-03    0.26E-06
   1      7    11.635     5.964    0.24E-03    0.31E-03    0.30E-06
   1      7    11.635     5.382    0.22E-03    0.25E-03    0.26E-06
 Optimization of the real space projectors (new method)

 maximal supplied QI-value         = 34.20
 optimisation between [QCUT,QGAM] = [ 11.63, 23.26] = [ 37.87,151.49] Ry
 Optimized for a Real-space Cutoff    1.21 Angstroem

   l    n(q)    QCUT    max X(q) W(low)/X(q) W(high)/X(q)  e(spline)
   0      8    11.629    19.460    0.17E-03    0.34E-03    0.21E-06
   0      8    11.629    12.209    0.16E-03    0.33E-03    0.21E-06
   1      8    11.629     4.655    0.18E-03    0.16E-03    0.26E-06
  PAW_PBE Fe 06Sep2000                  :
  PAW_PBE O 08Apr2002                   :
  PAW_PBE H 15Jun2001                   :

 POSCAR: POSCAR
  positions in direct lattice
  velocities in cartesian coordinates
 exchange correlation table for  LEXCH =        8
   RHO(1)=    0.500       N(1)  =     2000
   RHO(2)=  100.500       N(2)  =     4000

 VTST: version 3.2, (02/03/18)

 CHAIN: initializing optimizer

 OPT: Using VASP Dynamics algorithm
 CHAIN: Read ICHAIN            0

 POSCAR: POSCAR
  positions in direct lattice
  velocities in cartesian coordinates

 ion  position               nearest neighbor table
   1  0.087  0.163  0.095-   5 2.48  13 2.48  17 2.48  49 2.48  31 2.48   3 2.48  29 2.87  53 2.87
                            15 2.87  19 2.87
   2  0.088  0.160  0.285-  32 2.38   3 2.44  31 2.45  50 2.47   4 2.47  14 2.48   6 2.48  18 2.50
                            20 2.82  15 2.83  54 2.84  19 2.84  16 2.87  30 2.89
   3  0.212  0.038  0.191-   2 2.44  54 2.44  15 2.48   7 2.48  51 2.48  19 2.48  53 2.48   1 2.48
                             6 2.83  50 2.85  31 2.87  55 2.87  49 2.87   5 2.87
   4  0.206  0.031  0.381-  65 1.89  16 2.42  52 2.42  54 2.47   2 2.47   8 2.54  20 2.54  50 2.77
                            56 2.86  32 2.87   6 2.95
   5  0.337  0.163  0.095-   1 2.48   9 2.48  21 2.48  53 2.48   7 2.48  19 2.48  17 2.87  57 2.87
                             3 2.87  23 2.87
   6  0.338  0.163  0.285-   7 2.44  19 2.44  20 2.46   8 2.46  10 2.48  22 2.48   2 2.48  54 2.48
                            24 2.80  23 2.83   3 2.83  58 2.86  18 2.86   4 2.95
   7  0.462  0.038  0.191-   6 2.44  58 2.44  11 2.48   3 2.48  55 2.48  23 2.48  57 2.48   5 2.48
                            10 2.84  54 2.84  19 2.87  59 2.87  53 2.87   9 2.87
   8  0.460  0.036  0.380-  65 1.87  12 2.43  56 2.44  58 2.45   6 2.46  24 2.49   4 2.54  54 2.82
                            60 2.84  20 2.86  10 2.86
   9  0.587  0.163  0.095-   5 2.48  13 2.48  25 2.48  57 2.48  11 2.48  23 2.48  21 2.87  61 2.87
                             7 2.87  27 2.87
  10  0.588  0.162  0.286-  24 2.42  12 2.44  11 2.45  23 2.46  58 2.47   6 2.48  14 2.49  26 2.49
                             7 2.84  27 2.84  28 2.85  62 2.86   8 2.86  22 2.87
  11  0.712  0.038  0.191-  62 2.44  10 2.45  15 2.48   7 2.48  59 2.48  27 2.48  61 2.48   9 2.48
                            14 2.84  58 2.84  23 2.87  63 2.87  57 2.87  13 2.87
  12  0.707  0.029  0.379-  66 1.86  60 2.39  62 2.43   8 2.43  10 2.44  16 2.54  28 2.56  58 2.74
                            64 2.85  24 2.89  14 2.92
  13  0.837  0.163  0.095-   1 2.48   9 2.48  29 2.48  61 2.48  15 2.48  27 2.48  49 2.87  25 2.87
                            11 2.87  31 2.87
  14  0.838  0.163  0.285-  15 2.44  27 2.44  28 2.45  16 2.47   2 2.48  30 2.48  10 2.49  62 2.49
                            32 2.78  31 2.83  11 2.84  50 2.87  26 2.87  12 2.92
  15  0.962  0.038  0.191-  14 2.44  50 2.46   3 2.48  11 2.48  31 2.48  63 2.48  13 2.48  49 2.48
                             2 2.83  62 2.84  27 2.87  51 2.87   1 2.87  61 2.87
  16  0.961  0.033  0.380-  66 1.86   4 2.42  50 2.43  64 2.44  14 2.47  12 2.54  32 2.54  62 2.82
                            52 2.82  28 2.83   2 2.87
  17  0.087  0.413  0.095-  21 2.48  29 2.48   1 2.48  33 2.48  19 2.48  47 2.48  45 2.87   5 2.87
                            31 2.87  35 2.87
  18  0.088  0.412  0.285-  48 2.42  19 2.44  20 2.45  47 2.46  22 2.47  34 2.48  30 2.49   2 2.50
                            36 2.74  32 2.76  35 2.84  31 2.84   6 2.86  46 2.88
  19  0.212  0.288  0.191-   6 2.44  18 2.44  23 2.48  31 2.48   3 2.48  35 2.48   5 2.48  17 2.48
                            22 2.84   2 2.84   7 2.87  47 2.87  21 2.87   1 2.87
  20  0.211  0.285  0.380-  65 1.87  36 2.43  32 2.44  18 2.45   6 2.46  24 2.48   4 2.54   2 2.82
                            48 2.85   8 2.86  22 2.86
  21  0.337  0.413  0.095-  17 2.48  25 2.48   5 2.48  37 2.48  35 2.48  23 2.48   9 2.87  33 2.87
                            19 2.87  39 2.87
  22  0.337  0.413  0.286-  24 2.42  36 2.44  35 2.45  23 2.46  18 2.47   6 2.48  38 2.49  26 2.49
                            19 2.84  39 2.84  40 2.85  34 2.86  20 2.86  10 2.87
  23  0.462  0.288  0.191-  22 2.46  10 2.46  19 2.48  27 2.48   7 2.48  39 2.48  21 2.48   9 2.48
                             6 2.83  26 2.87  35 2.87  11 2.87   5 2.87  25 2.87
  24  0.460  0.286  0.378-  69 2.03  10 2.42  22 2.42  20 2.48   8 2.49  40 2.54  28 2.54   6 2.80
                            26 2.83  12 2.89  36 2.89
  25  0.587  0.413  0.095-  21 2.48  29 2.48   9 2.48  41 2.48  39 2.48  27 2.48  13 2.87  37 2.87
                            23 2.87  43 2.87
  26  0.588  0.413  0.287-  42 2.47  30 2.47  27 2.47  39 2.47  40 2.48  28 2.48  22 2.49  10 2.49
                            44 2.78  24 2.83  43 2.85  23 2.87  14 2.87  38 2.87
  27  0.712  0.288  0.191-  14 2.44  26 2.47  23 2.48  31 2.48  11 2.48  43 2.48  25 2.48  13 2.48
                            30 2.83  10 2.84  39 2.87  15 2.87   9 2.87  29 2.87
  28  0.717  0.283  0.381-  66 1.90  69 2.05  14 2.45  32 2.47  26 2.48  44 2.49  24 2.54  12 2.56
                            16 2.83  10 2.85  30 2.86  40 2.97
  29  0.837  0.413  0.095-  17 2.48  25 2.48  13 2.48  45 2.48  43 2.48  31 2.48   1 2.87  41 2.87
                            27 2.87  47 2.87
  30  0.837  0.413  0.285-  32 2.39  43 2.44  31 2.45  44 2.45  26 2.47  46 2.48  14 2.48  18 2.49
                            48 2.81  27 2.83  47 2.83  42 2.85  28 2.86   2 2.89
  31  0.962  0.288  0.191-  30 2.45   2 2.45  27 2.48  19 2.48  15 2.48  47 2.48   1 2.48  29 2.48
                            14 2.83  18 2.84  43 2.87   3 2.87  17 2.87  13 2.87
  32  0.964  0.288  0.375-   2 2.38  30 2.39  48 2.44  20 2.44  28 2.47  16 2.54  18 2.76  14 2.78
                             4 2.87  44 2.88
  33  0.087  0.663  0.095-  37 2.48  45 2.48  17 2.48  49 2.48  35 2.48  63 2.48  61 2.87  21 2.87
                            47 2.87  51 2.87
  34  0.088  0.662  0.285-  64 2.40  36 2.43  35 2.44  63 2.45  18 2.48  46 2.48  38 2.49  50 2.49
                            52 2.82  47 2.83  51 2.84  48 2.85  22 2.86  62 2.88
  35  0.212  0.538  0.191-  34 2.44  22 2.45  39 2.48  47 2.48  19 2.48  51 2.48  21 2.48  33 2.48
                            38 2.84  18 2.84  23 2.87  63 2.87  37 2.87  17 2.87
  36  0.204  0.532  0.379-  68 1.86  48 2.39  34 2.43  20 2.43  22 2.44  52 2.54  40 2.56  18 2.74
                            64 2.85  24 2.89  38 2.92
  37  0.337  0.663  0.095-  33 2.48  41 2.48  21 2.48  53 2.48  51 2.48  39 2.48  25 2.87  49 2.87
                            35 2.87  55 2.87
  38  0.338  0.663  0.285-  51 2.44  39 2.44  40 2.45  52 2.47  54 2.48  42 2.48  22 2.49  34 2.49
                            56 2.78  55 2.83  35 2.84  50 2.87  26 2.87  36 2.92
  39  0.462  0.538  0.191-  38 2.44  26 2.47  35 2.48  43 2.48  23 2.48  55 2.48  37 2.48  25 2.48
                            42 2.83  22 2.84  51 2.87  27 2.87  21 2.87  41 2.87
  40  0.458  0.542  0.381-  68 1.90  69 2.05  38 2.45  56 2.47  26 2.48  44 2.49  24 2.54  36 2.56
                            52 2.83  22 2.85  42 2.86  28 2.97
  41  0.587  0.663  0.095-  37 2.48  45 2.48  25 2.48  57 2.48  55 2.48  43 2.48  29 2.87  53 2.87
                            39 2.87  59 2.87
  42  0.588  0.662  0.285-  56 2.39  43 2.44  55 2.45  44 2.45  26 2.47  46 2.48  38 2.48  58 2.49
                            60 2.81  39 2.83  59 2.83  30 2.85  40 2.86  54 2.89
  43  0.712  0.538  0.191-  42 2.44  30 2.44  39 2.48  47 2.48  27 2.48  59 2.48  41 2.48  29 2.48
                            46 2.82  26 2.85  55 2.87  31 2.87  25 2.87  45 2.87
  44  0.710  0.536  0.379-  67 1.94  42 2.45  30 2.45  40 2.49  28 2.49  60 2.50  48 2.50  26 2.78
                            46 2.87  56 2.87  32 2.88
  45  0.837  0.663  0.095-  33 2.48  41 2.48  29 2.48  61 2.48  59 2.48  47 2.48  17 2.87  57 2.87
                            43 2.87  63 2.87
  46  0.837  0.663  0.284-  47 2.43  59 2.43  48 2.47  60 2.47  30 2.48  42 2.48  34 2.48  62 2.48
                            64 2.80  43 2.82  63 2.82  44 2.87  58 2.88  18 2.88
  47  0.962  0.538  0.191-  46 2.43  18 2.46  43 2.48  35 2.48  31 2.48  63 2.48  17 2.48  45 2.48
                            34 2.83  30 2.83  59 2.87  19 2.87  33 2.87  29 2.87
  48  0.963  0.533  0.379-  67 1.86  36 2.39  18 2.42  32 2.44  46 2.47  44 2.50  64 2.52  30 2.81
                            20 2.85  34 2.85  60 2.92
  49  0.087  0.913  0.095-  53 2.48  61 2.48   1 2.48  33 2.48  15 2.48  51 2.48  37 2.87  13 2.87
                             3 2.87  63 2.87
  50  0.087  0.912  0.286-  16 2.43  52 2.43  51 2.46  15 2.46  54 2.47   2 2.47  34 2.49  62 2.49
[...]
      4.71578      7.37332      4.02685        -0.045571      0.077426     -0.462638
      4.66389      7.36201      8.00406         0.262674      0.088602     -0.138684
      6.37069      8.54352      2.00000        -0.011578     -0.017829      0.967477
      6.35200      8.54903      6.00681        -0.217001      0.315394      0.287454
      7.19815      7.37332      4.02685         0.047440      0.045781     -0.200335
      7.20151      7.38422      7.90147         0.152481      0.111121     -1.088151
      8.85307      8.54352      2.00000         0.028890      0.032689      1.065214
      8.84732      8.55253      6.01438        -0.375215     -0.149013     -0.500291
      9.68053      7.37332      4.02685        -0.092963      0.018055     -0.299306
      9.63713      7.37672      7.98065        -0.091709      0.313929     -0.063638
     11.33544      8.54352      2.00000        -0.003206     -0.029591      0.958254
     11.32573      8.54440      6.00479        -0.142975      0.196025      0.245270
     12.16290      7.37332      4.02685        -0.018831     -0.013054     -0.234497
     12.15481      7.36766      7.92649         0.158386      0.113661     -1.124804
      3.41337      1.18538      9.08713        -0.544949     -0.383627     -1.038327
      8.36798      1.10201      9.08495        -0.519490     -0.402466     -0.922280
     10.14790      5.94865      9.06451        -0.706489     -0.499536     -1.245696
      4.98336      5.88362      9.08445        -0.542282     -0.346855     -0.906409
      6.75642      3.54957      9.32146        -0.417679     -0.295090     -1.857080
      6.70561      3.51209     10.27913        -0.131406     -0.092909      0.808853
    total drift:                               -0.004009     -0.011402     -0.010632

  FREE ENERGIE OF THE ION-ELECTRON SYSTEM (eV)
  free  energy   TOTEN  =      -523.35225032 eV

  energy  without entropy=     -518.01108012  energy(sigma->0) =     -520.68166522

 d Force =-0.3108107E-02[-0.243E-01, 0.180E-01]  d Energy =-0.2319839E-02-0.788E-03
 d Force =-0.1048032E+02[-0.106E+02,-0.104E+02]  d Ewald  =-0.1047907E+02-0.125E-02

 stress matrix after NEB project (eV)
   -146.49020      9.44219     -1.97353
      9.44219   -153.15462     -1.37006
     -1.97353     -1.37006    -82.97310
  FORCES: max atom, RMS     1.926208    0.250440
  FORCE total and by dimension    2.095333    1.857080
  Stress total and by dimension  228.013387  153.154620
 Finite differences progress:
  Degree of freedom:   6/  6
  Displacement:        2/  2
  Total:              12/ 12

 SECOND DERIVATIVES (NOT SYMMETRIZED)
              69X         69Y         69Z         70X         70Y         70Z
 69X    -6.289988    1.599947    2.209801    1.617403   -0.263860   -2.185505
 69Y     1.546639   -7.335375    1.653083   -0.261282    1.813486   -1.615095
 69Z     2.144390    1.564809  -53.067861   -2.374332   -1.752922   46.185084
 70X     1.590056   -0.261024   -2.390013   -1.055068   -0.071863    2.282763
 70Y    -0.261086    1.794756   -1.756329   -0.086102   -1.014682    1.692111
 70Z    -2.196735   -1.633390   46.222128    2.292176    1.679128  -47.016649

 Eigenvectors and eigenvalues of the dynamical matrix

   1 f  =  110.619912 THz   695.045408 2PiTHz 3689.882985 cm-1   457.487348 meV
             X         Y         Z           dx          dy          dz
      1.405944  1.522303  1.999996            0           0           0
      1.405585  1.502473  6.006999            0           0           0
      2.233403  0.352100  4.026849            0           0           0
      2.141820  0.286472  8.024297            0           0           0
      3.888319  1.522303  1.999996            0           0           0
      3.890128  1.523015  6.001043            0           0           0
      4.715778  0.352100  4.026849            0           0           0
      4.680978  0.333410  8.000078            0           0           0
      6.370694  1.522303  1.999996            0           0           0
      6.370750  1.519026  6.019324            0           0           0
      7.198153  0.352100  4.026849            0           0           0
      7.113853  0.270147  7.984530            0           0           0
      8.853069  1.522303  1.999996            0           0           0
      8.856535  1.523511  6.006142            0           0           0
      9.680528  0.352100  4.026849            0           0           0
      9.653913  0.306171  8.003803            0           0           0
      2.233403  3.862708  1.999996            0           0           0
      2.240978  3.854041  6.014342            0           0           0
      3.060861  2.692506  4.026849            0           0           0
      3.033153  2.664964  8.000360            0           0           0
      4.715778  3.862708  1.999996            0           0           0
      4.713313  3.863409  6.018829            0           0           0
      5.543236  2.692506  4.026849            0           0           0
      5.517927  2.674101  7.971185            0           0           0
      7.198153  3.862708  1.999996            0           0           0
      7.205968  3.867942  6.043890            0           0           0
      8.025611  2.692506  4.026849            0           0           0
      8.056577  2.648221  8.024357            0           0           0
      9.680528  3.862708  1.999996            0           0           0
      9.675598  3.866385  6.004380            0           0           0
     10.507986  2.692506  4.026849            0           0           0
     10.520847  2.692864  7.901061            0           0           0
      3.060861  6.203114  1.999996            0           0           0
      3.058583  6.193448  6.004532            0           0           0
      3.888319  5.032911  4.026849            0           0           0
      3.783309  4.980280  7.983926            0           0           0
      5.543236  6.203114  1.999996            0           0           0
      5.545509  6.205444  6.005839            0           0           0
      6.370694  5.032911  4.026849            0           0           0
      6.338618  5.075703  8.024285            0           0           0
      8.025611  6.203114  1.999996            0           0           0
      8.027143  6.196770  6.004533            0           0           0
      8.853069  5.032911  4.026849            0           0           0
      8.824359  5.013250  7.994200            0           0           0
     10.507986  6.203114  1.999996            0           0           0
     10.507260  6.202368  5.990837            0           0           0
     11.335444  5.032911  4.026849            0           0           0
     11.324355  4.991332  7.980883            0           0           0
      3.888319  8.543520  1.999996            0           0           0
      3.885405  8.541142  6.022068            0           0           0
      4.715778  7.373317  4.026849            0           0           0
      4.663889  7.362010  8.004056            0           0           0
      6.370694  8.543520  1.999996            0           0           0
      6.352004  8.549029  6.006805            0           0           0
      7.198153  7.373317  4.026849            0           0           0
      7.201512  7.384221  7.901466            0           0           0
      8.853069  8.543520  1.999996            0           0           0
      8.847318  8.552534  6.014376            0           0           0
      9.680528  7.373317  4.026849            0           0           0
      9.637135  7.376720  7.980653            0           0           0
     11.335444  8.543520  1.999996            0           0           0
     11.325728  8.544397  6.004790            0           0           0
     12.162903  7.373317  4.026849            0           0           0
     12.154808  7.367660  7.926493            0           0           0
      3.413368  1.185383  9.087129            0           0           0
      8.367982  1.102008  9.084954            0           0           0
     10.147898  5.948649  9.064508            0           0           0
      4.983363  5.883618  9.084449            0           0           0
      6.756422  3.549572  9.321458     0.011666    0.008653   -0.240343
      6.705612  3.512092 10.294132    -0.048272   -0.035579    0.968725

[...]

   6 f  =    6.660275 THz    41.847743 2PiTHz  222.162861 cm-1    27.544694 meV
             X         Y         Z           dx          dy          dz
      1.405944  1.522303  1.999996            0           0           0
      1.405585  1.502473  6.006999            0           0           0
      2.233403  0.352100  4.026849            0           0           0
      2.141820  0.286472  8.024297            0           0           0
      3.888319  1.522303  1.999996            0           0           0
      3.890128  1.523015  6.001043            0           0           0
      4.715778  0.352100  4.026849            0           0           0
      4.680978  0.333410  8.000078            0           0           0
      6.370694  1.522303  1.999996            0           0           0
      6.370750  1.519026  6.019324            0           0           0
      7.198153  0.352100  4.026849            0           0           0
      7.113853  0.270147  7.984530            0           0           0
      8.853069  1.522303  1.999996            0           0           0
      8.856535  1.523511  6.006142            0           0           0
      9.680528  0.352100  4.026849            0           0           0
      9.653913  0.306171  8.003803            0           0           0
      2.233403  3.862708  1.999996            0           0           0
      2.240978  3.854041  6.014342            0           0           0
      3.060861  2.692506  4.026849            0           0           0
      3.033153  2.664964  8.000360            0           0           0
      4.715778  3.862708  1.999996            0           0           0
      4.713313  3.863409  6.018829            0           0           0
      5.543236  2.692506  4.026849            0           0           0
      5.517927  2.674101  7.971185            0           0           0
      7.198153  3.862708  1.999996            0           0           0
      7.205968  3.867942  6.043890            0           0           0
      8.025611  2.692506  4.026849            0           0           0
      8.056577  2.648221  8.024357            0           0           0
      9.680528  3.862708  1.999996            0           0           0
      9.675598  3.866385  6.004380            0           0           0
     10.507986  2.692506  4.026849            0           0           0
     10.520847  2.692864  7.901061            0           0           0
      3.060861  6.203114  1.999996            0           0           0
      3.058583  6.193448  6.004532            0           0           0
      3.888319  5.032911  4.026849            0           0           0
      3.783309  4.980280  7.983926            0           0           0
      5.543236  6.203114  1.999996            0           0           0
      5.545509  6.205444  6.005839            0           0           0
      6.370694  5.032911  4.026849            0           0           0
      6.338618  5.075703  8.024285            0           0           0
      8.025611  6.203114  1.999996            0           0           0
      8.027143  6.196770  6.004533            0           0           0
      8.853069  5.032911  4.026849            0           0           0
      8.824359  5.013250  7.994200            0           0           0
     10.507986  6.203114  1.999996            0           0           0
     10.507260  6.202368  5.990837            0           0           0
     11.335444  5.032911  4.026849            0           0           0
     11.324355  4.991332  7.980883            0           0           0
      3.888319  8.543520  1.999996            0           0           0
      3.885405  8.541142  6.022068            0           0           0
      4.715778  7.373317  4.026849            0           0           0
      4.663889  7.362010  8.004056            0           0           0
      6.370694  8.543520  1.999996            0           0           0
      6.352004  8.549029  6.006805            0           0           0
      7.198153  7.373317  4.026849            0           0           0
      7.201512  7.384221  7.901466            0           0           0
      8.853069  8.543520  1.999996            0           0           0
      8.847318  8.552534  6.014376            0           0           0
      9.680528  7.373317  4.026849            0           0           0
      9.637135  7.376720  7.980653            0           0           0
     11.335444  8.543520  1.999996            0           0           0
     11.325728  8.544397  6.004790            0           0           0
     12.162903  7.373317  4.026849            0           0           0
     12.154808  7.367660  7.926493            0           0           0
      3.413368  1.185383  9.087129            0           0           0
      8.367982  1.102008  9.084954            0           0           0
     10.147898  5.948649  9.064508            0           0           0
      4.983363  5.883618  9.084449            0           0           0
      6.756422  3.549572  9.321458    -0.711763   -0.586029    0.048643
      6.705612  3.512092 10.294132    -0.287229   -0.255131    0.002192

 Finite differences POTIM=  1.500000000000000E-002

 total charge

# of ion       s       p       d       tot
    1        0.454   0.356   6.231   7.041
    2        0.474   0.510   6.261   7.245
    3        0.468   0.493   6.256   7.218
    4        0.457   0.469   6.281   7.206
    5        0.454   0.355   6.233   7.043
    6        0.469   0.502   6.264   7.235
    7        0.467   0.494   6.251   7.212
    8        0.461   0.484   6.281   7.226
    9        0.454   0.356   6.232   7.042
   10        0.471   0.505   6.252   7.229
   11        0.467   0.492   6.254   7.212
   12        0.466   0.485   6.292   7.243
   13        0.455   0.355   6.233   7.043
   14        0.473   0.499   6.265   7.236
   15        0.466   0.492   6.251   7.208
   16        0.464   0.490   6.281   7.235
   17        0.455   0.356   6.230   7.042
   18        0.477   0.510   6.271   7.258
   19        0.467   0.494   6.251   7.211
   20        0.461   0.484   6.281   7.226
   21        0.454   0.356   6.232   7.042
   22        0.472   0.505   6.253   7.229
   23        0.465   0.491   6.249   7.206
   24        0.423   0.406   6.287   7.116
   25        0.455   0.356   6.231   7.041
   26        0.470   0.494   6.256   7.221
   27        0.464   0.492   6.248   7.204
   28        0.426   0.503   6.292   7.221
   29        0.454   0.356   6.232   7.042
   30        0.474   0.513   6.260   7.247
   31        0.466   0.494   6.251   7.211
   32        0.465   0.383   6.273   7.121
   33        0.454   0.356   6.231   7.041
   34        0.475   0.512   6.262   7.248
   35        0.467   0.492   6.254   7.212
   36        0.466   0.487   6.292   7.245
   37        0.455   0.355   6.233   7.043
   38        0.473   0.499   6.265   7.237
   39        0.464   0.492   6.249   7.205
   40        0.426   0.503   6.293   7.221
   41        0.454   0.356   6.232   7.042
   42        0.474   0.513   6.260   7.248
   43        0.468   0.493   6.254   7.215
   44        0.436   0.438   6.289   7.163
   45        0.455   0.355   6.233   7.043
   46        0.470   0.499   6.268   7.236
   47        0.466   0.495   6.251   7.212
   48        0.468   0.497   6.289   7.253
   49        0.455   0.357   6.228   7.040
   50        0.477   0.510   6.269   7.256
   51        0.466   0.492   6.251   7.208
   52        0.464   0.490   6.281   7.235
   53        0.454   0.356   6.231   7.041
   54        0.474   0.510   6.261   7.245
   55        0.466   0.494   6.252   7.211
   56        0.465   0.383   6.273   7.121
   57        0.455   0.356   6.231   7.042
   58        0.477   0.510   6.271   7.259
   59        0.466   0.495   6.251   7.212
   60        0.468   0.497   6.289   7.254
   61        0.454   0.356   6.231   7.041
   62        0.475   0.512   6.262   7.248
   63        0.466   0.495   6.253   7.213
   64        0.450   0.370   6.281   7.101
   65        1.581   3.342   0.000   4.923
   66        1.582   3.346   0.000   4.927
   67        1.581   3.336   0.000   4.917
   68        1.582   3.346   0.000   4.928
   69        1.547   3.543   0.000   5.090
   70        0.621   0.130   0.000   0.752
tot         38.062  46.095 400.485 484.642