 vasp.5.4.4.18Apr17-6-g9f103f2a35 (build Dec 15 2018 21:27:11) complex

 executed on             LinuxIFC date 2022.03.01  02:40:04

 INCAR:
 POTCAR:    PAW_PBE Ni 02Aug2007
 POTCAR:    PAW_PBE O 08Apr2002
 POTCAR:    PAW_PBE H 15Jun2001

 POTCAR:    PAW_PBE Ni 02Aug2007
   VRHFIN =Ni:

   TITEL  = PAW_PBE Ni 02Aug2007
   POMASS =   58.690; ZVAL   =   10.000    mass and valenz
   ENMAX  =  269.532; ENMIN  =  202.149 eV

 POTCAR:    PAW_PBE O 08Apr2002
   VRHFIN =O: s2p4

   TITEL  = PAW_PBE O 08Apr2002
   POMASS =   16.000; ZVAL   =    6.000    mass and valenz
   ENMAX  =  400.000; ENMIN  =  300.000 eV

 POTCAR:    PAW_PBE H 15Jun2001
   VRHFIN =H: ultrasoft test

   TITEL  = PAW_PBE H 15Jun2001
   POMASS =    1.000; ZVAL   =    1.000    mass and valenz
   ENMAX  =  250.000; ENMIN  =  200.000 eV

 Optimization of the real space projectors (new method)

 maximal supplied QI-value         = 16.25
 optimisation between [QCUT,QGAM] = [ 11.54, 23.24] = [ 37.28,151.24] Ry
 Optimized for a Real-space Cutoff    1.45 Angstroem

   l    n(q)    QCUT    max X(q) W(low)/X(q) W(high)/X(q)  e(spline)
   2      9    11.539    60.317    0.19E-03    0.47E-04    0.16E-06
   2      9    11.539    55.921    0.19E-03    0.48E-04    0.16E-06
   0     10    11.539    51.690    0.80E-04    0.50E-04    0.24E-06
   0     10    11.539    30.015    0.73E-04    0.45E-04    0.22E-06
   1     10    11.539    18.849    0.87E-04    0.16E-03    0.71E-07
   1     10    11.539    14.624    0.73E-04    0.13E-03    0.64E-07
 Optimization of the real space projectors (new method)

[...]

   l    n(q)    QCUT    max X(q) W(low)/X(q) W(high)/X(q)  e(spline)
   0      8    11.635    20.381    0.10E-03    0.33E-03    0.24E-06
   0      8    11.635    15.268    0.11E-03    0.35E-03    0.26E-06
   1      7    11.635     5.964    0.24E-03    0.31E-03    0.30E-06
   1      7    11.635     5.382    0.22E-03    0.25E-03    0.26E-06
 Optimization of the real space projectors (new method)

 maximal supplied QI-value         = 34.20
 optimisation between [QCUT,QGAM] = [ 11.63, 23.26] = [ 37.87,151.49] Ry
 Optimized for a Real-space Cutoff    1.21 Angstroem

   l    n(q)    QCUT    max X(q) W(low)/X(q) W(high)/X(q)  e(spline)
   0      8    11.629    19.460    0.17E-03    0.34E-03    0.21E-06
   0      8    11.629    12.209    0.16E-03    0.33E-03    0.21E-06
   1      8    11.629     4.655    0.18E-03    0.16E-03    0.26E-06
  PAW_PBE Ni 02Aug2007                  :
  PAW_PBE O 08Apr2002                   :
  PAW_PBE H 15Jun2001                   :

 POSCAR: POSCAR
  positions in direct lattice
  velocities in cartesian coordinates
 exchange correlation table for  LEXCH =        8
   RHO(1)=    0.500       N(1)  =     2000
   RHO(2)=  100.500       N(2)  =     4000

 VTST: version 3.2, (02/03/18)

 CHAIN: initializing optimizer

 OPT: Using VASP Conjugate-Gradient optimizer
 CHAIN: Read ICHAIN            0

 POSCAR: POSCAR
  positions in direct lattice
  velocities in cartesian coordinates

 ion  position               nearest neighbor table
   1  0.113  0.226  0.095-  15 2.49  19 2.49   3 2.49   5 2.49  13 2.49  17 2.49  21 2.49  49 2.49
                            61 2.49
   2  0.110  0.227  0.382-  65 1.82  14 2.40  18 2.43  20 2.46  62 2.49  22 2.50  24 2.51   6 2.52
                             4 2.52  50 2.57
   3  0.196  0.142  0.191-   4 2.44  24 2.45   8 2.46   5 2.49  49 2.49   1 2.49   7 2.49  15 2.49
                            19 2.49  23 2.49  51 2.49  63 2.49
   4  0.030  0.059  0.285-  62 2.43   3 2.44  63 2.44  15 2.45  24 2.49   8 2.49  16 2.49  20 2.49
                            64 2.49  52 2.49   2 2.52  50 2.53
   5  0.363  0.226  0.095-   3 2.49  23 2.49   7 2.49   9 2.49   1 2.49  21 2.49  25 2.49  49 2.49
                            53 2.49
   6  0.360  0.223  0.386-  65 1.88  69 1.98  50 2.51   2 2.52  54 2.52  22 2.52  26 2.54  10 2.54
                            28 2.54   8 2.55  24 2.55
   7  0.446  0.142  0.191-   8 2.46  12 2.46  28 2.49   9 2.49  53 2.49   5 2.49  11 2.49   3 2.49
                            23 2.49  51 2.49  27 2.49  55 2.49
   8  0.280  0.060  0.286-  54 2.41   3 2.46   7 2.46  24 2.46  51 2.46  28 2.48   4 2.49  52 2.50
                            12 2.50  56 2.51  50 2.51   6 2.55
   9  0.613  0.226  0.095-   7 2.49  27 2.49  11 2.49  13 2.49   5 2.49  25 2.49  29 2.49  53 2.49
                            57 2.49
  10  0.615  0.223  0.386-  68 1.88  69 1.97  58 2.51  14 2.51  54 2.52  30 2.52  32 2.54  12 2.54
                            26 2.54   6 2.54  28 2.54
  11  0.696  0.142  0.191-  16 2.44  12 2.45  32 2.45  13 2.49  57 2.49   9 2.49  15 2.49   7 2.49
                            27 2.49  55 2.49  31 2.49  59 2.49
  12  0.531  0.060  0.286-  54 2.41  11 2.45   7 2.46  55 2.46  32 2.46  28 2.48  16 2.48  60 2.50
                             8 2.50  56 2.51  58 2.52  10 2.54
  13  0.863  0.226  0.095-  11 2.49  31 2.49  15 2.49   9 2.49   1 2.49  29 2.49  17 2.49  57 2.49
                            61 2.49
  14  0.869  0.227  0.382-  68 1.82   2 2.40  18 2.43  20 2.46  62 2.49  30 2.50  10 2.51  32 2.52
                            16 2.52  58 2.57
  15  0.946  0.142  0.191-  16 2.44   4 2.45  20 2.47   1 2.49  61 2.49  13 2.49   3 2.49  11 2.49
                            31 2.49  59 2.49  19 2.49  63 2.49
  16  0.780  0.059  0.285-  62 2.43  15 2.44  59 2.44  11 2.44  32 2.48  12 2.48   4 2.49  64 2.49
                            60 2.49  20 2.49  58 2.52  14 2.52
  17  0.113  0.476  0.095-  31 2.49  35 2.49  19 2.49  21 2.49  29 2.49  13 2.49  33 2.49   1 2.49
                            37 2.49
  18  0.112  0.472  0.382-  67 1.84  14 2.43   2 2.43  20 2.47  30 2.47  22 2.48  40 2.52  36 2.53
                            34 2.53  38 2.54
  19  0.196  0.392  0.191-  40 2.44  20 2.47  24 2.47  21 2.49   1 2.49  17 2.49  31 2.49  23 2.49
                            15 2.49  35 2.49  39 2.49   3 2.49
  20  0.030  0.309  0.286-  14 2.46   2 2.46  19 2.47  15 2.47  18 2.47  31 2.47  40 2.49  36 2.49
                             4 2.49  16 2.49  24 2.50  32 2.50
  21  0.363  0.476  0.095-  19 2.49  39 2.49  23 2.49  25 2.49  17 2.49   5 2.49  37 2.49   1 2.49
                            41 2.49
  22  0.362  0.476  0.376-  40 2.40  44 2.41  24 2.41  18 2.48  38 2.48   2 2.50  42 2.50  26 2.52
                             6 2.52
  23  0.446  0.392  0.191-  24 2.46  44 2.46  25 2.49   5 2.49  21 2.49  27 2.49  19 2.49   3 2.49
                            39 2.49  43 2.49   7 2.49  28 2.50
  24  0.280  0.307  0.286-  22 2.41   3 2.45  23 2.46   8 2.46  19 2.47  28 2.48   4 2.49  20 2.50
                            44 2.50  40 2.51   2 2.51   6 2.55
  25  0.613  0.476  0.095-  23 2.49  43 2.49  27 2.49  29 2.49  21 2.49   9 2.49  41 2.49   5 2.49
                            45 2.49
  26  0.615  0.478  0.386-  66 1.88  69 1.98  46 2.51  42 2.52  30 2.52  22 2.52   6 2.54  10 2.54
                            28 2.54  48 2.55  44 2.55
  27  0.696  0.392  0.191-  48 2.46  32 2.46  28 2.49  29 2.49   9 2.49  25 2.49  23 2.49  31 2.49
                            11 2.49  43 2.49  47 2.49   7 2.49
  28  0.530  0.309  0.288-  44 2.48  24 2.48   8 2.48  48 2.48  12 2.48  32 2.48  27 2.49   7 2.49
                            23 2.50  10 2.54   6 2.54  26 2.54
  29  0.863  0.476  0.095-  27 2.49  47 2.49  31 2.49  25 2.49  17 2.49  13 2.49  33 2.49  45 2.49
                             9 2.49
  30  0.866  0.476  0.376-  36 2.40  32 2.41  48 2.41  18 2.47  34 2.48  46 2.50  14 2.50  10 2.52
                            26 2.52
  31  0.946  0.392  0.191-  36 2.44  32 2.46  20 2.47  17 2.49  13 2.49  29 2.49  27 2.49  19 2.49
                            15 2.49  35 2.49  11 2.49  47 2.49
  32  0.778  0.307  0.286-  30 2.41  11 2.45  27 2.46  31 2.46  12 2.46  16 2.48  28 2.48  20 2.50
                            48 2.50  36 2.51  14 2.52  10 2.54
  33  0.113  0.726  0.095-  47 2.49  51 2.49  35 2.49  37 2.49  45 2.49  29 2.49  49 2.49  17 2.49
                            53 2.49
  34  0.112  0.727  0.382-  67 1.84  50 2.43  46 2.43  54 2.47  30 2.48  52 2.48  56 2.52  36 2.52
                            18 2.53  38 2.54
  35  0.196  0.642  0.191-  36 2.43  56 2.43  40 2.44  37 2.49  17 2.49  33 2.49  47 2.49  39 2.49
                            31 2.49  51 2.49  55 2.49  19 2.49
  36  0.030  0.559  0.284-  30 2.40  35 2.43  31 2.44  47 2.44  56 2.49  40 2.49  52 2.49  20 2.49
                            48 2.51  32 2.51  34 2.52  18 2.53
  37  0.363  0.726  0.095-  35 2.49  55 2.49  39 2.49  41 2.49  33 2.49  21 2.49  53 2.49  17 2.49
                            57 2.49
  38  0.366  0.727  0.382-  67 1.84  58 2.43  42 2.43  60 2.47  54 2.47  22 2.48  40 2.52  56 2.53
                            34 2.54  18 2.54
  39  0.446  0.642  0.191-  40 2.44  60 2.47  44 2.47  41 2.49  21 2.49  37 2.49  35 2.49  43 2.49
                            23 2.49  55 2.49  59 2.49  19 2.49
  40  0.280  0.559  0.284-  22 2.40  39 2.44  19 2.44  35 2.44  36 2.49  56 2.49  20 2.49  60 2.49
                            44 2.51  24 2.51  18 2.52  38 2.52
  41  0.613  0.726  0.095-  39 2.49  59 2.49  43 2.49  45 2.49  37 2.49  25 2.49  57 2.49  21 2.49
                            61 2.49
  42  0.612  0.729  0.382-  66 1.82  58 2.40  38 2.43  60 2.46  62 2.49  22 2.50  44 2.51  26 2.52
                            64 2.52  46 2.57
  43  0.696  0.642  0.191-  64 2.44  44 2.45  48 2.46  45 2.49  25 2.49  41 2.49  39 2.49  47 2.49
                            27 2.49  59 2.49  63 2.49  23 2.49
  44  0.531  0.559  0.286-  22 2.41  43 2.45  23 2.46  48 2.46  39 2.47  28 2.48  64 2.49  60 2.50
                            24 2.50  40 2.51  42 2.51  26 2.55
  45  0.863  0.726  0.095-  43 2.49  63 2.49  47 2.49  41 2.49  33 2.49  29 2.49  49 2.49  61 2.49
                            25 2.49
  46  0.869  0.729  0.382-  66 1.82  50 2.40  34 2.43  52 2.46  62 2.49  30 2.50  48 2.51  26 2.51
                            64 2.53  42 2.57
  47  0.946  0.642  0.191-  36 2.44  48 2.46  52 2.47  33 2.49  29 2.49  45 2.49  43 2.49  35 2.49
                            31 2.49  51 2.49  27 2.49  63 2.49
  48  0.778  0.559  0.286-  30 2.41  43 2.46  27 2.46  47 2.46  44 2.46  28 2.48  64 2.49  52 2.50
                            32 2.50  36 2.51  46 2.51  26 2.55
  49  0.113  0.976  0.095-  63 2.49   3 2.49  51 2.49  61 2.49  53 2.49   1 2.49   5 2.49  33 2.49
                            45 2.49
  50  0.110  0.970  0.382-  65 1.82  46 2.40  34 2.43  52 2.46  62 2.49  54 2.50   8 2.51   6 2.51
                             4 2.53   2 2.57
  51  0.196  0.892  0.191-  56 2.44   8 2.46  52 2.47  53 2.49  33 2.49  49 2.49  55 2.49  63 2.49
                            35 2.49  47 2.49   3 2.49   7 2.49
  52  0.030  0.809  0.286-  46 2.46  50 2.46  51 2.47  47 2.47  63 2.47  34 2.48  56 2.49  36 2.49
                             4 2.49  64 2.49   8 2.50  48 2.50
  53  0.363  0.976  0.095-  51 2.49   7 2.49  55 2.49  49 2.49  57 2.49   5 2.49   9 2.49  33 2.49
                            37 2.49
  54  0.362  0.972  0.376-  56 2.40  12 2.41   8 2.41  38 2.47  34 2.47  50 2.50  58 2.50  10 2.52
                             6 2.52
[...]
   -.346E+00 -.281E+01 -.835E+03   0.373E+00 0.277E+01 0.836E+03   -.476E-02 0.117E-01 -.116E+01   -.239E-01 0.367E-01 -.120E+00
   -.776E+00 0.460E+00 0.321E+04   0.780E+00 -.453E+00 -.320E+04   -.199E-01 0.111E-01 -.124E+01   0.227E-01 -.232E-01 -.339E-02
   0.258E+02 -.149E+02 -.285E+04   -.261E+02 0.151E+02 0.285E+04   0.322E+00 -.185E+00 0.317E+01   -.228E-01 0.139E-01 -.818E-01
   -.498E+01 0.286E+01 0.121E+04   0.500E+01 -.288E+01 -.121E+04   -.265E-01 0.157E-01 -.147E+00   0.339E-01 -.101E-01 -.865E-01
   0.492E+00 0.894E+00 -.821E+03   -.251E+00 -.908E+00 0.821E+03   -.237E+00 0.311E-01 0.230E+00   -.131E-01 -.699E-02 -.124E+00
   -.111E-01 0.875E+00 0.320E+04   -.404E-01 -.882E+00 -.320E+04   0.682E-03 0.824E-02 -.143E+01   0.504E-01 -.233E-01 0.772E-02
   0.138E+01 0.611E+00 -.279E+04   -.142E+01 0.369E+00 0.279E+04   0.923E-02 -.970E+00 0.952E+00   0.275E-01 0.115E-01 -.333E-01
   0.511E+01 0.272E+01 0.121E+04   -.518E+01 -.276E+01 -.121E+04   0.290E-01 0.131E-01 -.141E+00   0.307E-01 0.173E-01 -.977E-01
   0.825E+00 -.468E+00 -.854E+03   -.846E+00 0.456E+00 0.855E+03   -.767E-02 0.367E-02 -.945E+00   0.262E-01 0.958E-02 -.146E+00
   0.782E+00 0.396E+00 0.321E+04   -.783E+00 -.405E+00 -.320E+04   0.174E-01 0.103E-01 -.124E+01   -.223E-01 -.566E-02 0.249E-01
   -.262E+02 -.155E+02 -.285E+04   0.266E+02 0.157E+02 0.285E+04   -.351E+00 -.205E+00 0.319E+01   0.260E-01 0.257E-01 -.107E+00
   0.296E+00 0.347E+01 0.121E+04   -.210E+00 -.356E+01 -.121E+04   -.524E-01 0.226E-01 -.197E+00   -.350E-01 0.330E-01 -.577E-01
   -.847E+00 0.448E+00 -.818E+03   0.591E+00 -.512E+00 0.818E+03   0.245E+00 0.376E-01 0.215E+00   0.159E-01 0.366E-01 -.138E+00
   0.424E+00 -.215E+00 0.321E+04   -.392E+00 0.225E+00 -.320E+04   -.417E-02 0.216E-02 -.141E+01   -.329E-01 -.102E-01 0.295E-01
   0.911E+02 -.526E+02 -.288E+04   -.928E+02 0.535E+02 0.288E+04   0.168E+01 -.968E+00 0.419E+00   -.313E-02 -.239E-01 -.792E-01
   -.172E+00 0.130E+00 0.122E+04   0.236E+00 -.134E+00 -.122E+04   0.641E-03 -.103E-04 -.302E+00   -.548E-01 0.407E-04 -.259E-01
   -.591E+01 -.342E+01 -.809E+03   0.588E+01 0.338E+01 0.808E+03   0.170E-01 0.904E-02 0.519E+00   0.353E-02 0.228E-01 -.129E+00
   -.365E+00 -.185E+00 0.321E+04   0.398E+00 0.176E+00 -.320E+04   0.395E-02 0.653E-03 -.141E+01   -.314E-01 0.113E-01 0.909E-02
   -.912E+02 -.524E+02 -.288E+04   0.929E+02 0.534E+02 0.288E+04   -.168E+01 -.968E+00 0.414E+00   -.241E-01 -.111E-01 -.627E-01
   -.354E+01 -.106E+01 0.121E+04   0.358E+01 0.112E+01 -.121E+04   0.869E-02 -.579E-01 -.192E+00   -.110E-01 -.176E-02 -.395E-01
   0.549E+01 -.312E+01 -.809E+03   -.540E+01 0.308E+01 0.809E+03   -.173E-01 0.105E-01 0.518E+00   -.623E-01 0.218E-01 -.114E+00
   0.214E-01 0.643E+00 0.321E+04   -.979E-01 -.624E+00 -.320E+04   0.226E-01 0.129E-02 -.143E+01   0.349E-01 -.130E-01 0.188E-03
   0.112E+03 -.589E+02 -.285E+04   -.113E+03 0.597E+02 0.285E+04   0.168E+01 -.859E+00 0.213E+00   -.588E-02 -.177E-02 -.401E-01
   -.925E-01 0.402E+01 0.121E+04   0.447E-01 -.404E+01 -.121E+04   0.288E-03 0.235E-01 -.237E+00   0.541E-01 -.167E-01 -.711E-01
   -.546E+00 -.847E+00 -.820E+03   0.660E+00 0.648E+00 0.820E+03   -.147E+00 0.190E+00 0.230E+00   0.191E-01 0.123E-01 -.121E+00
   -.808E-01 0.622E+00 0.321E+04   0.937E-01 -.581E+00 -.320E+04   -.229E-01 0.114E-02 -.143E+01   0.294E-01 -.346E-01 0.207E-01
   -.111E+03 -.592E+02 -.285E+04   0.113E+03 0.600E+02 0.285E+04   -.168E+01 -.857E+00 0.211E+00   0.403E-01 -.149E-01 -.565E-01
   0.337E+01 -.131E+01 0.121E+04   -.341E+01 0.139E+01 -.121E+04   -.589E-02 -.579E-01 -.193E+00   0.118E-01 -.158E-01 -.550E-01
   0.938E+00 -.117E+01 -.820E+03   -.112E+01 0.968E+00 0.820E+03   0.144E+00 0.189E+00 0.230E+00   0.444E-01 0.125E-01 -.137E+00
   -.553E+00 -.240E+00 0.321E+04   0.549E+00 0.211E+00 -.320E+04   -.126E-01 0.186E-01 -.143E+01   0.195E-01 -.112E-01 0.143E-01
   -.435E+01 0.126E+03 -.285E+04   0.443E+01 -.128E+03 0.285E+04   -.972E-01 0.188E+01 0.214E+00   0.111E-01 -.386E-01 -.498E-01
   0.285E+01 -.226E+01 0.121E+04   -.290E+01 0.227E+01 -.121E+04   0.476E-01 0.346E-01 -.192E+00   -.930E-02 -.281E-01 -.553E-01
   -.211E+01 0.124E+01 -.835E+03   0.208E+01 -.120E+01 0.836E+03   0.617E-02 -.371E-02 -.116E+01   0.252E-01 -.397E-01 -.134E+00
   0.591E-01 -.881E+00 0.321E+04   -.430E-01 0.882E+00 -.320E+04   -.625E-03 -.210E-01 -.124E+01   -.151E-01 0.274E-01 0.891E-02
   0.356E+00 0.304E+02 -.285E+04   -.353E+00 -.308E+02 0.285E+04   0.235E-02 0.403E+00 0.319E+01   -.882E-02 -.359E-01 -.925E-01
   -.287E+01 -.200E+01 0.121E+04   0.298E+01 0.198E+01 -.121E+04   -.456E-01 0.346E-01 -.197E+00   -.344E-01 0.756E-02 -.507E-01
   0.471E-01 0.685E+01 -.809E+03   -.193E-01 -.677E+01 0.808E+03   0.106E-02 -.193E-01 0.520E+00   -.303E-01 -.502E-01 -.126E+00
   0.541E+00 -.242E+00 0.321E+04   -.539E+00 0.157E+00 -.320E+04   0.142E-01 0.192E-01 -.143E+01   -.190E-01 0.441E-01 0.158E-02
   0.452E+01 0.127E+03 -.285E+04   -.461E+01 -.128E+03 0.285E+04   0.974E-01 0.188E+01 0.205E+00   -.635E-02 -.183E-01 -.396E-01
   0.444E+01 0.287E+01 0.121E+04   -.455E+01 -.294E+01 -.121E+04   0.715E-01 0.405E-01 -.191E+00   0.867E-02 0.563E-02 -.565E-01
   0.228E+01 0.173E+01 -.835E+03   -.225E+01 -.172E+01 0.836E+03   -.125E-01 -.195E-02 -.116E+01   -.220E-01 -.104E-01 -.113E+00
   -.484E-01 0.154E-01 0.321E+04   0.350E-01 -.177E-01 -.321E+04   -.112E-02 0.110E-03 -.127E+01   0.146E-01 0.166E-02 0.221E-02
   -.266E+00 0.115E+00 -.288E+04   0.254E+00 -.108E+00 0.288E+04   -.277E-02 0.199E-02 0.342E+01   0.115E-01 -.718E-02 -.789E-01
   -.481E+01 0.277E+01 0.121E+04   0.489E+01 -.281E+01 -.121E+04   -.702E-01 0.409E-01 -.194E+00   0.350E-01 -.297E-01 -.607E-01
   -.151E+00 0.511E+01 -.811E+03   0.117E+00 -.499E+01 0.810E+03   0.365E-03 -.854E-01 0.474E+00   0.313E-01 -.294E-01 -.124E+00
   0.421E+02 0.241E+02 -.230E+04   -.425E+02 -.244E+02 0.233E+04   0.404E+00 0.236E+00 -.284E+02   -.111E-01 -.548E-02 0.276E-01
   0.206E+00 -.486E+02 -.230E+04   -.213E+00 0.490E+02 0.233E+04   0.179E-02 -.463E+00 -.284E+02   0.638E-02 0.821E-02 0.219E-01
   0.254E-01 -.328E-01 -.231E+04   -.214E-01 0.422E-01 0.234E+04   0.368E-02 -.425E-02 -.282E+02   -.119E-01 -.162E-02 0.772E-03
   -.421E+02 0.244E+02 -.230E+04   0.424E+02 -.246E+02 0.233E+04   -.326E+00 0.195E+00 -.284E+02   0.898E-02 0.379E-02 0.303E-01
   0.161E+01 -.774E+00 -.224E+04   -.302E+01 0.146E+01 0.222E+04   0.140E+01 -.690E+00 0.189E+02   0.446E-03 0.713E-02 -.135E-01
   -.271E+01 0.135E+01 -.424E+03   0.298E+01 -.148E+01 0.432E+03   -.284E+00 0.141E+00 -.823E+01   0.335E-03 0.461E-03 0.626E-02
   -.130E+01 0.627E+00 0.114E+03   0.218E-12 -.446E-12 0.477E-11   0.127E+01 -.623E+00 -.110E+03   0.400E-01 -.140E-01 -.379E+01

 POSITION                                       TOTAL-FORCE (eV/Angst)
     -0.00000      1.94796      2.00000        -0.017017      0.011786      0.251915
     -0.03468      1.96072      8.06479         0.015921     -0.012112     -0.002011
      1.24593      1.22862      4.03457         0.016983      0.003069     -0.232285
      0.00517      0.50721      6.00617        -0.007992     -0.002318     -0.002383
      2.49184      1.94796      2.00000         0.018336      0.010605      0.252014
      2.47812      1.92896      8.14739        -0.020458     -0.008755     -0.002940
      3.73777      1.22862      4.03457         0.005354      0.018067     -0.142098
      2.49122      0.51860      6.02665         0.001163     -0.002808     -0.001416
      4.98369      1.94796      2.00000        -0.018288      0.009917      0.251909
      5.01989      1.92787      8.13874         0.014859     -0.009225      0.001549
      6.22962      1.22862      4.03457        -0.000758      0.001063     -0.236323
      4.99452      0.51819      6.02525        -0.005077     -0.002967     -0.000820
      7.47553      1.94796      2.00000         0.017454      0.012226      0.252059
      7.53173      1.96080      8.06428        -0.025833     -0.014999      0.001039
      8.72146      1.22862      4.03457         0.007245      0.036499     -0.258348
      7.48009      0.50712      6.00626         0.004481     -0.002690     -0.002976
     -1.24593      4.10596      2.00000         0.000138     -0.005990      0.239124
     -1.23618      4.07609      8.06936        -0.002768      0.017351      0.000134
      0.00000      3.38662      4.03457         0.019959     -0.035390     -0.249090
     -1.24050      2.66844      6.04026        -0.001469      0.002741     -0.007213
      1.24592      4.10596      2.00000         0.006281     -0.004011      0.194702
      1.23506      4.11305      7.94582        -0.004122      0.002197      0.020269
      2.49185      3.38662      4.03457         0.023263     -0.012815     -0.142651
      1.25861      2.65399      6.02671        -0.004125      0.005589     -0.001416
      3.73776      4.10596      2.00000        -0.000568     -0.021835      0.252063
      3.74811      4.12845      8.14698        -0.003170      0.023797     -0.003033
      4.98369      3.38662      4.03457        -0.012540     -0.012759     -0.141769
      3.74263      2.66490      6.07006        -0.002030      0.000954     -0.005010
      6.22961      4.10596      2.00000        -0.006205     -0.004190      0.195893
      6.26036      4.11319      7.94467        -0.002116      0.002546      0.020241
      7.47554      3.38662      4.03457        -0.001850     -0.034918     -0.252843
      6.22776      2.65414      6.02529        -0.000011      0.005419     -0.000822
     -2.49185      6.26396      2.00000        -0.004510      0.002323      0.239753
     -2.50396      6.27186      8.06892         0.014613     -0.008359      0.002340
     -1.24592      5.54462      4.03457         0.008841     -0.004134     -0.280615
     -2.48650      4.82333      6.00117        -0.006483     -0.002131      0.002104
     -0.00000      6.26396      2.00000         0.004933      0.002406      0.238889
      0.03189      6.27201      8.06914        -0.018368     -0.007573      0.001144
      1.24593      5.54462      4.03457         0.041167      0.001839     -0.249273
      0.00450      4.82314      6.00175         0.003276     -0.002110      0.002052
      2.49184      6.26396      2.00000        -0.019251      0.008239      0.251835
      2.46423      6.28895      8.06460         0.022239     -0.010569      0.000868
      3.73777      5.54462      4.03457         0.006388     -0.015015     -0.232230
      2.51005      4.82156      6.02667        -0.006947      0.000573     -0.001549
      4.98369      6.26396      2.00000         0.019277      0.008474      0.251856
      5.03164      6.28989      8.06483        -0.034482     -0.013412      0.004958
      6.22962      5.54462      4.03457        -0.027608      0.002565     -0.248936
      4.97578      4.82185      6.02665         0.002601      0.000295     -0.001551
     -3.73777      8.42196      2.00000         0.002028     -0.021499      0.251791
     -3.73555      8.36881      8.06487        -0.005407      0.034645      0.004610
     -2.49184      7.70262      4.03457        -0.015159      0.024068     -0.248924
     -3.72987      6.97922      6.04035         0.000499     -0.000303     -0.009816
     -1.24593      8.42196      2.00000         0.000197      0.006783      0.195631
     -1.23610      8.39305      7.94463        -0.003205      0.000202      0.020716
      0.00000      7.70262      4.03457         0.029991      0.020251     -0.253016
     -1.24116      6.98029      6.00114        -0.001601      0.006656      0.002134
      1.24592      8.42196      2.00000        -0.002383     -0.021958      0.251914
      1.26377      8.36804      8.06413        -0.000479      0.033925      0.003927
      2.49185      7.70262      4.03457        -0.027234     -0.023250     -0.258577
      1.24812      6.97876      6.04022        -0.003560     -0.000552     -0.008625
      3.73776      8.42196      2.00000        -0.000164     -0.000366      0.185089
      3.74739      8.41722      7.96621        -0.003444      0.001581      0.020122
      4.98369      7.70262      4.03457         0.041116     -0.022878     -0.257609
      3.74257      6.98050      6.00617        -0.002108      0.007751     -0.002491
      1.13201      1.15197      9.21253        -0.008461     -0.007288     -0.027079
      3.74812      5.68259      9.21255         0.000473      0.013242     -0.030124
     -1.23544      5.53999      9.18841        -0.004343      0.003643     -0.020441
      6.36480      1.15165      9.21105         0.004779     -0.005457     -0.029518
      3.76015      2.65589      9.46716        -0.005819      0.003167      0.020198
      3.79386      2.63917     10.44100        -0.016446      0.008183     -0.039023
    total drift:                                0.013536     -0.010062      0.061328

  FREE ENERGIE OF THE ION-ELECTRON SYSTEM (eV)
  free  energy   TOTEN  =      -386.72321973 eV

  energy  without entropy=     -386.62151714  energy(sigma->0) =     -386.68931887

 d Force = 0.5599287E-04[-0.502E-04, 0.162E-03]  d Energy = 0.6854907E-04-0.126E-04
 d Force = 0.2882587E+01[ 0.288E+01, 0.288E+01]  d Ewald  = 0.2882588E+01-0.105E-05

 stress matrix after NEB project (eV)
    -32.03084      0.19587     -0.50431
      0.19587    -31.84442      0.24197
     -0.50431      0.24197     -8.56139
  FORCES: max atom, RMS     0.043130    0.015219
  FORCE total and by dimension    0.127328    0.039023
  Stress total and by dimension   45.978711   32.030840

 reached required accuracy - stopping structural energy minimisation
 writing wavefunctions

 total charge

[...]

 magnetization (x)

# of ion       s       p       d       tot
    1       -0.008  -0.025   0.708   0.674
    2       -0.003  -0.013   0.595   0.579
    3       -0.006  -0.025   0.766   0.735
    4       -0.006  -0.025   0.738   0.707
    5       -0.008  -0.025   0.709   0.676
    6       -0.005  -0.011   0.741   0.725
    7       -0.006  -0.025   0.742   0.711
    8       -0.006  -0.025   0.728   0.697
    9       -0.008  -0.025   0.709   0.676
   10       -0.005  -0.011   0.736   0.720
   11       -0.006  -0.025   0.766   0.735
   12       -0.006  -0.025   0.728   0.696
   13       -0.008  -0.025   0.708   0.674
   14       -0.003  -0.013   0.594   0.578
   15       -0.006  -0.025   0.729   0.699
   16       -0.006  -0.025   0.738   0.707
   17       -0.007  -0.025   0.717   0.685
   18       -0.003  -0.014   0.615   0.598
   19       -0.005  -0.025   0.726   0.696
   20       -0.006  -0.021   0.593   0.567
   21       -0.002  -0.025   0.751   0.725
   22       -0.011  -0.017   0.807   0.779
   23       -0.006  -0.025   0.741   0.711
   24       -0.006  -0.025   0.728   0.697
   25       -0.008  -0.025   0.709   0.676
   26       -0.005  -0.011   0.741   0.725
   27       -0.006  -0.025   0.742   0.712
   28       -0.006  -0.023   0.680   0.651
   29       -0.002  -0.025   0.752   0.725
   30       -0.011  -0.017   0.807   0.779
   31       -0.005  -0.025   0.726   0.696
   32       -0.006  -0.025   0.728   0.697
   33       -0.007  -0.025   0.717   0.685
   34       -0.003  -0.014   0.616   0.599
   35       -0.006  -0.024   0.763   0.733
   36       -0.007  -0.025   0.734   0.703
   37       -0.007  -0.025   0.717   0.685
   38       -0.003  -0.014   0.615   0.598
   39       -0.005  -0.025   0.726   0.696
   40       -0.007  -0.025   0.734   0.703
   41       -0.008  -0.025   0.708   0.674
   42       -0.003  -0.013   0.595   0.579
   43       -0.006  -0.025   0.766   0.735
   44       -0.006  -0.025   0.728   0.697
   45       -0.008  -0.025   0.708   0.675
   46       -0.003  -0.013   0.596   0.580
   47       -0.005  -0.025   0.727   0.697
   48       -0.006  -0.025   0.729   0.697
   49       -0.008  -0.025   0.708   0.675
   50       -0.003  -0.013   0.596   0.580
   51       -0.005  -0.025   0.727   0.697
   52       -0.006  -0.021   0.594   0.567
   53       -0.002  -0.025   0.752   0.725
   54       -0.011  -0.017   0.807   0.779
   55       -0.005  -0.025   0.726   0.696
   56       -0.007  -0.025   0.734   0.703
   57       -0.008  -0.025   0.708   0.674
   58       -0.003  -0.013   0.594   0.578
   59       -0.006  -0.025   0.729   0.699
   60       -0.006  -0.021   0.593   0.567
   61       -0.001  -0.025   0.744   0.718
   62       -0.012  -0.016   0.789   0.760
   63       -0.006  -0.025   0.730   0.700
   64       -0.006  -0.025   0.738   0.707
   65        0.003   0.139   0.000   0.141
   66        0.003   0.139   0.000   0.141
   67        0.002   0.127   0.000   0.130
   68        0.003   0.138   0.000   0.141
   69        0.012   0.140   0.000   0.152
   70        0.002   0.002   0.000   0.004
tot         -0.356  -0.712  45.446  44.377