 vasp.5.4.4.18Apr17-6-g9f103f2a35 (build Dec 15 2018 21:27:54) gamma-only

 executed on             LinuxIFC date 2022.03.06  07:31:48

 INCAR:
 POTCAR:    PAW_PBE Fe 06Sep2000
 POTCAR:    PAW_PBE Ni 02Aug2007
 POTCAR:    PAW_PBE O 08Apr2002
 POTCAR:    PAW_PBE H 15Jun2001

 POTCAR:    PAW_PBE Fe 06Sep2000
   VRHFIN =Fe:  d7 s1

   TITEL  = PAW_PBE Fe 06Sep2000
   POMASS =   55.847; ZVAL   =    8.000    mass and valenz
   ENMAX  =  267.882; ENMIN  =  200.911 eV

 POTCAR:    PAW_PBE Ni 02Aug2007
   VRHFIN =Ni:

   TITEL  = PAW_PBE Ni 02Aug2007
   POMASS =   58.690; ZVAL   =   10.000    mass and valenz
   ENMAX  =  269.532; ENMIN  =  202.149 eV

 POTCAR:    PAW_PBE O 08Apr2002
   VRHFIN =O: s2p4

   TITEL  = PAW_PBE O 08Apr2002
   POMASS =   16.000; ZVAL   =    6.000    mass and valenz
   ENMAX  =  400.000; ENMIN  =  300.000 eV

 POTCAR:    PAW_PBE H 15Jun2001
   VRHFIN =H: ultrasoft test

   TITEL  = PAW_PBE H 15Jun2001
   POMASS =    1.000; ZVAL   =    1.000    mass and valenz
   ENMAX  =  250.000; ENMIN  =  200.000 eV

 Optimization of the real space projectors (new method)

 maximal supplied QI-value         = 16.25
 optimisation between [QCUT,QGAM] = [ 11.54, 23.24] = [ 37.28,151.24] Ry
 Optimized for a Real-space Cutoff    1.53 Angstroem

   l    n(q)    QCUT    max X(q) W(low)/X(q) W(high)/X(q)  e(spline)
   2     10    11.539    80.901    0.11E-03    0.14E-03    0.21E-06
   2     10    11.539    75.754    0.11E-03    0.14E-03    0.22E-06
   0     11    11.539    58.752    0.52E-04    0.18E-04    0.33E-06
   0     11    11.539    30.679    0.44E-04    0.16E-04    0.30E-06
   1     10    11.539    17.977    0.53E-04    0.29E-04    0.13E-06
   1     10    11.539    13.559    0.44E-04    0.25E-04    0.11E-06
 Optimization of the real space projectors (new method)

[...]

   l    n(q)    QCUT    max X(q) W(low)/X(q) W(high)/X(q)  e(spline)
   0      8    11.635    20.381    0.10E-03    0.33E-03    0.24E-06
   0      8    11.635    15.268    0.11E-03    0.35E-03    0.26E-06
   1      7    11.635     5.964    0.24E-03    0.31E-03    0.30E-06
   1      7    11.635     5.382    0.22E-03    0.25E-03    0.26E-06
 Optimization of the real space projectors (new method)

 maximal supplied QI-value         = 34.20
 optimisation between [QCUT,QGAM] = [ 11.63, 23.26] = [ 37.87,151.49] Ry
 Optimized for a Real-space Cutoff    1.21 Angstroem

   l    n(q)    QCUT    max X(q) W(low)/X(q) W(high)/X(q)  e(spline)
   0      8    11.629    19.460    0.17E-03    0.34E-03    0.21E-06
   0      8    11.629    12.209    0.16E-03    0.33E-03    0.21E-06
   1      8    11.629     4.655    0.18E-03    0.16E-03    0.26E-06
  PAW_PBE Fe 06Sep2000                  :
  PAW_PBE Ni 02Aug2007                  :
  PAW_PBE O 08Apr2002                   :
  PAW_PBE H 15Jun2001                   :

 POSCAR: POSCAR
  positions in direct lattice
  velocities in cartesian coordinates
 exchange correlation table for  LEXCH =        8
   RHO(1)=    0.500       N(1)  =     2000
   RHO(2)=  100.500       N(2)  =     4000

 VTST: version 3.2, (02/03/18)

 CHAIN: initializing optimizer

 OPT: Using VASP Dynamics algorithm
 CHAIN: Read ICHAIN            0

 POSCAR: POSCAR
  positions in direct lattice
  velocities in cartesian coordinates

 ion  position               nearest neighbor table
   1  0.002  0.999  0.097-   9 2.45  29 2.50  49 2.51  64 2.51  44 2.53   7 2.53  51 2.54  38 2.55
                             5 2.60
   2  0.002  0.997  0.381-  11 2.42  48 2.47   6 2.49  30 2.50  57 2.50   8 2.51  39 2.52  52 2.52
                            50 2.57
   3  0.499  0.996  0.096-   5 2.47  62 2.50  34 2.52  31 2.52  49 2.53  45 2.55  55 2.55  12 2.56
                            53 2.58
   4  0.504  0.993  0.380-  15 2.40  13 2.44  63 2.46  35 2.50  32 2.51   6 2.53  50 2.54  56 2.55
                            54 2.59
   5  0.743  0.996  0.094-   3 2.47  34 2.47  62 2.52  38 2.53  55 2.54  64 2.58  14 2.58  51 2.59
                             1 2.60
   6  0.756  0.996  0.385-  68 1.80  39 2.45   2 2.49  56 2.51  35 2.52  47 2.53   4 2.53  15 2.54
                            57 2.56  52 2.58
   7  0.249  0.253  0.097-  22 2.43   9 2.44  51 2.49  18 2.52  20 2.53   1 2.53  53 2.54  10 2.55
                            49 2.58
   8  0.252  0.245  0.382-  66 1.79  11 2.46  52 2.47  19 2.48  54 2.51   2 2.51  59 2.53  26 2.53
                            21 2.55  50 2.55
   9  0.089  0.161  0.191-  10 2.41   7 2.44   1 2.45  44 2.47  11 2.51  57 2.51  59 2.52  51 2.52
                            64 2.54  22 2.55  58 2.62  14 2.68
  10  0.330  0.166  0.195-  26 2.41   9 2.41  11 2.46  22 2.48  45 2.48  44 2.49  13 2.54   7 2.55
                            12 2.57  49 2.58  53 2.59  25 2.59
  11  0.165  0.079  0.289-   2 2.42   8 2.46  10 2.46  44 2.47  48 2.48  57 2.50  13 2.51   9 2.51
                            59 2.53  46 2.54  26 2.57  50 2.61
  12  0.583  0.166  0.194-  14 2.45  27 2.50  15 2.51  62 2.52  45 2.54  13 2.55  55 2.55   3 2.56
                            10 2.57  28 2.58  53 2.58  25 2.58
  13  0.415  0.083  0.292-   4 2.44  50 2.49  11 2.51  54 2.52  10 2.54  46 2.54  26 2.54  12 2.55
                            45 2.55  28 2.56  15 2.57  63 2.59
  14  0.827  0.167  0.193-  60 2.44  12 2.45  15 2.47  57 2.51  62 2.51  55 2.51  27 2.53  58 2.56
                            51 2.56   5 2.58  64 2.59   9 2.68
  15  0.668  0.082  0.290-   4 2.40  14 2.47  60 2.50  12 2.51  47 2.52  62 2.53  57 2.54   6 2.54
                            28 2.55  56 2.55  63 2.56  13 2.57
  16  0.003  0.511  0.095-  31 2.44  29 2.45  23 2.48  33 2.51  58 2.57  18 2.58  27 2.59  55 2.60
                            51 2.63
  17  0.005  0.500  0.377-  43 2.38  37 2.41  60 2.43  32 2.53  19 2.54  24 2.55  52 2.55  30 2.55
                            56 2.57
  18  0.256  0.506  0.097-  36 2.40  31 2.45  34 2.47  22 2.47  20 2.48   7 2.52  58 2.53  51 2.58
                            16 2.58
  19  0.250  0.489  0.385-  67 1.87  52 2.41   8 2.48  59 2.52  21 2.54  17 2.54  61 2.57  37 2.59
                            35 2.59  32 2.61
  20  0.500  0.503  0.098-  22 2.41  40 2.43  34 2.48  18 2.48  38 2.50  25 2.53   7 2.53  53 2.54
                            23 2.58
  21  0.504  0.496  0.376-  42 2.38  26 2.40  61 2.43  35 2.53  54 2.53  19 2.54   8 2.55  24 2.55
                            39 2.55
  22  0.339  0.416  0.189-  20 2.41   7 2.43  26 2.46  40 2.46  18 2.47  25 2.48  10 2.48  61 2.51
                            36 2.53  59 2.53   9 2.55  58 2.60
  23  0.757  0.508  0.096-  29 2.40  41 2.46  16 2.48  27 2.48  38 2.48  25 2.56  55 2.57  20 2.58
                            53 2.60
  24  0.752  0.495  0.394-  65 1.89  69 1.96  54 2.54  21 2.55  17 2.55  28 2.55  56 2.56  39 2.61
                            30 2.61  43 2.66  42 2.70
  25  0.586  0.422  0.194-  26 2.43  42 2.45  40 2.45  41 2.46  27 2.46  22 2.48  20 2.53  23 2.56
                            53 2.58  12 2.58  10 2.59  28 2.60
  26  0.417  0.335  0.285-  21 2.40  10 2.41  25 2.43  22 2.46  59 2.49  61 2.49   8 2.53  13 2.54
                            42 2.56  11 2.57  28 2.57  54 2.70
  27  0.827  0.417  0.192-  41 2.45  25 2.46  23 2.48  12 2.50  55 2.51  43 2.53  14 2.53  60 2.53
                            28 2.57  58 2.59  16 2.59  33 2.60
  28  0.670  0.334  0.294-  60 2.50  43 2.51  42 2.52  54 2.53  56 2.54  15 2.55  24 2.55  13 2.56
                            27 2.57  26 2.57  12 2.58  25 2.60
  29  0.992  0.747  0.096-  23 2.40  16 2.45  38 2.48  41 2.50   1 2.50  33 2.54  44 2.56  49 2.57
                            31 2.63
  30  0.010  0.754  0.388-  65 1.86  50 2.45  46 2.47  32 2.49   2 2.50  17 2.55  43 2.59  39 2.60
                            24 2.61  48 2.64
  31  0.251  0.746  0.097-  16 2.44  36 2.44  18 2.45  33 2.49  34 2.52   3 2.52  45 2.55  49 2.56
                            29 2.63
  32  0.253  0.749  0.389-  67 1.87  50 2.48  30 2.49   4 2.51  46 2.52  17 2.53  35 2.56  63 2.60
                            19 2.61  37 2.65
  33  0.086  0.671  0.192-  45 2.48  44 2.48  31 2.49  16 2.51  36 2.52  37 2.52  41 2.52  46 2.53
                            43 2.54  29 2.54  58 2.55  27 2.60
  34  0.502  0.749  0.098-  18 2.47   5 2.47  40 2.48  36 2.48  20 2.48  62 2.49  38 2.49  31 2.52
                             3 2.52
  35  0.506  0.746  0.385-  67 1.87  39 2.46  47 2.50   4 2.50   6 2.52  21 2.53  32 2.56  61 2.56
                            63 2.59  19 2.59
  36  0.330  0.661  0.190-  18 2.40  31 2.44  37 2.47  34 2.48  58 2.49  61 2.51  63 2.51  33 2.52
                            22 2.53  40 2.53  62 2.56  45 2.62
  37  0.170  0.578  0.286-  17 2.41  58 2.44  36 2.47  61 2.48  59 2.49  63 2.50  33 2.52  60 2.55
                            46 2.55  43 2.58  19 2.59  32 2.65
  38  0.748  0.749  0.094-  29 2.48  23 2.48  34 2.49  20 2.50   5 2.53  40 2.54  64 2.55   1 2.55
                            41 2.58
  39  0.751  0.751  0.388-  65 1.84   6 2.45  35 2.46   2 2.52  21 2.55  47 2.56  42 2.58  30 2.60
                            48 2.60  24 2.61
  40  0.580  0.661  0.192-  20 2.43  25 2.45  22 2.46  61 2.47  34 2.48  36 2.53  42 2.53  47 2.53
                            38 2.54  41 2.54  62 2.56  64 2.57
  41  0.832  0.662  0.193-  27 2.45  42 2.45  25 2.46  23 2.46  48 2.49  29 2.50  43 2.50  33 2.52
                            40 2.54  64 2.54  44 2.57  38 2.58
  42  0.673  0.584  0.288-  21 2.38  25 2.45  41 2.45  43 2.48  48 2.50  28 2.52  47 2.53  40 2.53
                            26 2.56  39 2.58  61 2.58  24 2.70
  43  0.917  0.582  0.289-  17 2.38  42 2.48  41 2.50  46 2.51  28 2.51  27 2.53  33 2.54  48 2.54
                            60 2.55  37 2.58  30 2.59  24 2.66
  44  0.086  0.916  0.194-  45 2.43  48 2.46   9 2.47  11 2.47  33 2.48  10 2.49   1 2.53  49 2.53
                            64 2.54  46 2.56  29 2.56  41 2.57
  45  0.327  0.919  0.193-  44 2.43  33 2.48  10 2.48  49 2.49  46 2.53  63 2.54  12 2.54  31 2.55
                            13 2.55   3 2.55  62 2.59  36 2.62
  46  0.167  0.829  0.292-  30 2.47  43 2.51  50 2.52  32 2.52  63 2.53  33 2.53  45 2.53  13 2.54
                            11 2.54  48 2.54  37 2.55  44 2.56
  47  0.665  0.830  0.288-  35 2.50  63 2.51  62 2.51  64 2.51  61 2.52  15 2.52   6 2.53  42 2.53
                            40 2.53  48 2.54  39 2.56  57 2.57
  48  0.918  0.834  0.286-  44 2.46  64 2.47   2 2.47  11 2.48  41 2.49  42 2.50  57 2.52  43 2.54
                            46 2.54  47 2.54  39 2.60  30 2.64
  49  0.249  0.998  0.096-  45 2.49   1 2.51  44 2.53   3 2.53  53 2.55  31 2.56  29 2.57  10 2.58
                             7 2.58
  50  0.254  0.994  0.389-  66 1.87  30 2.45  32 2.48  13 2.49  54 2.51  46 2.52   4 2.54   8 2.55
                             2 2.57  11 2.61
  51  0.001  0.250  0.097-   7 2.49  58 2.51   9 2.52   1 2.54  55 2.55  14 2.56  18 2.58   5 2.59
                            16 2.63
  52  0.011  0.251  0.381-  68 1.87  19 2.41  59 2.46   8 2.47  57 2.50   2 2.52  60 2.53  56 2.54
                            17 2.55   6 2.58
  53  0.499  0.252  0.095-  55 2.53   7 2.54  20 2.54  49 2.55   3 2.58  25 2.58  12 2.58  10 2.59
[...]
     -1.24953      2.18697      2.05404         0.014195      0.029117      0.254690
     -1.16214      2.19764      8.11303         0.329349      0.092281      0.311015
      3.77687      2.20348      2.02824         0.043381     -0.044189      0.558386
      3.81023      2.14749      8.28990        -0.178945     -0.035981     -0.323178
      6.31052      2.19548      2.03586         0.009541      0.027706      0.503416
      6.41296      2.13728      8.27313        -0.102839      0.043911     -0.369001
      8.87978      0.73604      6.08416        -0.289260     -0.559068     -0.157227
     -1.27338      3.65234      4.08853        -0.012512      0.000906     -0.351615
      0.03728      2.90553      6.08419         0.047111     -0.070136     -0.143336
      7.58508      2.88345      6.09463        -0.264890      0.230161     -0.034516
      1.27080      5.08677      6.08179         0.210361      0.110567      0.195038
      1.25660      8.01495      4.09194        -0.072412      0.059914     -0.174959
      0.01952      7.24758      6.08870        -0.251753      0.308408      0.372806
      3.80919      8.00883      4.09175        -0.041637     -0.023803     -0.426876
      5.08546      5.93390      9.39027        -0.079728      0.158877     -0.449402
      2.36738      1.43096      9.38577        -0.206109      0.216100     -0.409179
      0.07952      5.75860      9.34000        -0.036185     -0.130984     -0.791200
      7.82796      1.34534      9.34396        -0.046805     -0.447184     -0.628554
      5.13889      2.85682      9.66985        -0.021575      0.422091     -1.020023
      5.17534      2.85475     10.62679         0.056686      0.081336      0.838844
    total drift:                                0.001260      0.004472     -0.010740

  FREE ENERGIE OF THE ION-ELECTRON SYSTEM (eV)
  free  energy   TOTEN  =      -500.58502715 eV

  energy  without entropy=     -497.25738946  energy(sigma->0) =     -498.92120830

 d Force =-0.3688643E-02[-0.252E-01, 0.178E-01]  d Energy =-0.2888789E-02-0.800E-03
 d Force =-0.1123542E+02[-0.113E+02,-0.111E+02]  d Ewald  =-0.1123414E+02-0.128E-02

 stress matrix after NEB project (eV)
   -128.06588      1.67697     -2.05957
      1.67697   -128.57798      2.61449
     -2.05957      2.61449    -77.44071
  FORCES: max atom, RMS     1.104116    0.166157
  FORCE total and by dimension    1.390166    1.020023
  Stress total and by dimension  197.377832  128.577979
 Finite differences progress:
  Degree of freedom:   6/  6
  Displacement:        2/  2
  Total:              12/ 12

 SECOND DERIVATIVES (NOT SYMMETRIZED)
              69X         69Y         69Z         70X         70Y         70Z
 69X    -5.445479    0.224433   -1.730939    1.124764    0.000328    1.702424
 69Y     0.249977   -6.475007    1.411064   -0.013549    1.359139   -0.182979
 69Z    -1.724812    1.408997  -56.524217    1.771304    0.158886   47.099726
 70X     1.098054   -0.013387    1.702440   -0.411053    0.018520   -1.734772
 70Y     0.006237    1.347500    0.149112    0.010132   -0.796359    0.259517
 70Z     1.688913   -0.180208   47.153147   -1.756494    0.240313  -47.725940

 Eigenvectors and eigenvalues of the dynamical matrix

   1 f  =  111.359242 THz   699.690756 2PiTHz 3714.544383 cm-1   460.544973 meV
             X         Y         Z           dx          dy          dz
     -5.032083  8.749923  2.059207            0           0           0
     -5.018620  8.734455  8.104736            0           0           0
      0.005743  8.726069  2.044661            0           0           0
      0.078672  8.692194  8.078521            0           0           0
      2.476647  8.725920  2.008210            0           0           0
      2.608390  8.718038  8.197889            0           0           0
      1.238907  2.217482  2.058803            0           0           0
      1.309762  2.144562  8.128921            0           0           0
      0.080741  1.414191  4.053211            0           0           0
      2.493295  1.454508  4.148294            0           0           0
      1.268207  0.690474  6.144367            0           0           0
      5.061665  1.449298  4.134981            0           0           0
      3.777405  0.724770  6.209596            0           0           0
      7.515570  1.458116  4.110014            0           0           0
      6.345906  0.714289  6.160319            0           0           0
     -2.550623  4.473994  2.009954            0           0           0
     -2.479499  4.382395  8.011225            0           0           0
      0.030138  4.429053  2.070202            0           0           0
      0.054697  4.281595  8.193562            0           0           0
      2.508468  4.405164  2.074349            0           0           0
      2.587411  4.344941  7.987136            0           0           0
      1.321393  3.641455  4.027713            0           0           0
      5.083819  4.448896  2.048149            0           0           0
      5.107729  4.331406  8.383719            0           0           0
      3.793772  3.697998  4.130706            0           0           0
      2.522660  2.932498  6.053445            0           0           0
      6.252931  3.649555  4.083048            0           0           0
      5.086133  2.925021  6.250913            0           0           0
      6.251940  6.541671  2.035474            0           0           0
     -3.715669  6.603414  8.257911            0           0           0
     -1.231329  6.529507  2.063609            0           0           0
     -1.223211  6.558338  8.268560            0           0           0
     -2.521724  5.874752  4.087450            0           0           0
      1.284263  6.559439  2.074094            0           0           0
      1.339415  6.535485  8.196939            0           0           0
     -0.006259  5.791447  4.044577            0           0           0
     -1.206301  5.064515  6.076384            0           0           0
      3.776284  6.555708  2.000001            0           0           0
      3.796778  6.580575  8.242917            0           0           0
      2.523868  5.788006  4.073096            0           0           0
      5.067337  5.797043  4.105165            0           0           0
      3.848996  5.116337  6.122774            0           0           0
      6.331585  5.100588  6.149157            0           0           0
     -3.762957  8.024455  4.119563            0           0           0
     -1.337071  8.050437  4.103081            0           0           0
     -2.502735  7.258543  6.207861            0           0           0
      2.527247  7.272367  6.125232            0           0           0
      5.070839  7.302862  6.089618            0           0           0
     -2.526901  8.740562  2.033028            0           0           0
     -2.458378  8.705748  8.264667            0           0           0
     -1.249535  2.186973  2.054039            0           0           0
     -1.162137  2.197637  8.113031            0           0           0
      3.776871  2.203480  2.028243            0           0           0
      3.810231  2.147488  8.289901            0           0           0
      6.310522  2.195476  2.035857            0           0           0
      6.412961  2.137284  8.273126            0           0           0
      8.879779  0.736043  6.084162            0           0           0
     -1.273378  3.652340  4.088535            0           0           0
      0.037279  2.905525  6.084186            0           0           0
      7.585079  2.883455  6.094634            0           0           0
      1.270799  5.086772  6.081793            0           0           0
      1.256598  8.014945  4.091938            0           0           0
      0.019518  7.247581  6.088698            0           0           0
      3.809188  8.008833  4.091746            0           0           0
      5.085456  5.933904  9.390269            0           0           0
      2.367378  1.430955  9.385771            0           0           0
      0.079516  5.758604  9.339996            0           0           0
      7.827958  1.345339  9.343958            0           0           0
      5.138885  2.856820  9.669850    -0.008871    0.001335   -0.242305
      5.175341  2.854748 10.641787     0.035767   -0.004684    0.969488

[...]

   6 f  =    4.376726 THz    27.499778 2PiTHz  145.991849 cm-1    18.100689 meV
             X         Y         Z           dx          dy          dz
     -5.032083  8.749923  2.059207            0           0           0
     -5.018620  8.734455  8.104736            0           0           0
      0.005743  8.726069  2.044661            0           0           0
      0.078672  8.692194  8.078521            0           0           0
      2.476647  8.725920  2.008210            0           0           0
      2.608390  8.718038  8.197889            0           0           0
      1.238907  2.217482  2.058803            0           0           0
      1.309762  2.144562  8.128921            0           0           0
      0.080741  1.414191  4.053211            0           0           0
      2.493295  1.454508  4.148294            0           0           0
      1.268207  0.690474  6.144367            0           0           0
      5.061665  1.449298  4.134981            0           0           0
      3.777405  0.724770  6.209596            0           0           0
      7.515570  1.458116  4.110014            0           0           0
      6.345906  0.714289  6.160319            0           0           0
     -2.550623  4.473994  2.009954            0           0           0
     -2.479499  4.382395  8.011225            0           0           0
      0.030138  4.429053  2.070202            0           0           0
      0.054697  4.281595  8.193562            0           0           0
      2.508468  4.405164  2.074349            0           0           0
      2.587411  4.344941  7.987136            0           0           0
      1.321393  3.641455  4.027713            0           0           0
      5.083819  4.448896  2.048149            0           0           0
      5.107729  4.331406  8.383719            0           0           0
      3.793772  3.697998  4.130706            0           0           0
      2.522660  2.932498  6.053445            0           0           0
      6.252931  3.649555  4.083048            0           0           0
      5.086133  2.925021  6.250913            0           0           0
      6.251940  6.541671  2.035474            0           0           0
     -3.715669  6.603414  8.257911            0           0           0
     -1.231329  6.529507  2.063609            0           0           0
     -1.223211  6.558338  8.268560            0           0           0
     -2.521724  5.874752  4.087450            0           0           0
      1.284263  6.559439  2.074094            0           0           0
      1.339415  6.535485  8.196939            0           0           0
     -0.006259  5.791447  4.044577            0           0           0
     -1.206301  5.064515  6.076384            0           0           0
      3.776284  6.555708  2.000001            0           0           0
      3.796778  6.580575  8.242917            0           0           0
      2.523868  5.788006  4.073096            0           0           0
      5.067337  5.797043  4.105165            0           0           0
      3.848996  5.116337  6.122774            0           0           0
      6.331585  5.100588  6.149157            0           0           0
     -3.762957  8.024455  4.119563            0           0           0
     -1.337071  8.050437  4.103081            0           0           0
     -2.502735  7.258543  6.207861            0           0           0
      2.527247  7.272367  6.125232            0           0           0
      5.070839  7.302862  6.089618            0           0           0
     -2.526901  8.740562  2.033028            0           0           0
     -2.458378  8.705748  8.264667            0           0           0
     -1.249535  2.186973  2.054039            0           0           0
     -1.162137  2.197637  8.113031            0           0           0
      3.776871  2.203480  2.028243            0           0           0
      3.810231  2.147488  8.289901            0           0           0
      6.310522  2.195476  2.035857            0           0           0
      6.412961  2.137284  8.273126            0           0           0
      8.879779  0.736043  6.084162            0           0           0
     -1.273378  3.652340  4.088535            0           0           0
      0.037279  2.905525  6.084186            0           0           0
      7.585079  2.883455  6.094634            0           0           0
      1.270799  5.086772  6.081793            0           0           0
      1.256598  8.014945  4.091938            0           0           0
      0.019518  7.247581  6.088698            0           0           0
      3.809188  8.008833  4.091746            0           0           0
      5.085456  5.933904  9.390269            0           0           0
      2.367378  1.430955  9.385771            0           0           0
      0.079516  5.758604  9.339996            0           0           0
      7.827958  1.345339  9.343958            0           0           0
      5.138885  2.856820  9.669850     0.711390    0.086350    0.021001
      5.175341  2.854748 10.641787     0.695099    0.051711   -0.013755

 Finite differences POTIM=  1.500000000000000E-002

 total charge

# of ion       s       p       d       tot
    1        0.467   0.359   6.255   7.081
    2        0.456   0.364   6.303   7.124
    3        0.459   0.349   6.248   7.056
    4        0.468   0.361   6.296   7.125
    5        0.452   0.347   6.243   7.042
    6        0.486   0.530   6.285   7.300
    7        0.468   0.367   6.265   7.100
    8        0.491   0.538   6.298   7.327
    9        0.476   0.499   6.264   7.238
   10        0.488   0.512   6.273   7.273
   11        0.487   0.520   6.274   7.281
   12        0.467   0.481   6.243   7.192
   13        0.468   0.491   6.252   7.211
   14        0.460   0.466   6.260   7.185
   15        0.474   0.498   6.255   7.226
   16        0.462   0.353   6.250   7.065
   17        0.476   0.370   6.291   7.136
   18        0.482   0.392   6.264   7.139
   19        0.456   0.478   6.279   7.213
   20        0.487   0.396   6.267   7.150
   21        0.480   0.384   6.292   7.156
   22        0.493   0.537   6.281   7.310
   23        0.478   0.381   6.260   7.119
   24        0.421   0.512   6.274   7.207
   25        0.488   0.527   6.270   7.285
   26        0.484   0.523   6.272   7.279
   27        0.473   0.498   6.254   7.225
   28        0.461   0.479   6.246   7.186
   29        0.480   0.385   6.260   7.125
   30        0.463   0.494   6.268   7.226
   31        0.481   0.387   6.258   7.125
   32        0.454   0.479   6.268   7.201
   33        0.482   0.513   6.256   7.252
   34        0.489   0.408   6.261   7.157
   35        0.460   0.493   6.272   7.224
   36        0.483   0.516   6.276   7.276
   37        0.472   0.495   6.262   7.229
   38        0.471   0.380   6.250   7.100
   39        0.472   0.503   6.277   7.253
   40        0.483   0.517   6.273   7.273
   41        0.491   0.525   6.276   7.293
   42        0.489   0.519   6.267   7.275
   43        0.479   0.511   6.255   7.245
   44        0.487   0.525   6.268   7.279
   45        0.472   0.499   6.252   7.223
   46        0.478   0.500   6.264   7.241
   47        0.470   0.482   6.263   7.215
   48        0.478   0.511   6.256   7.246
   49        0.505   0.365   8.298   9.168
   50        0.509   0.514   8.303   9.326
   51        0.499   0.352   8.300   9.151
   52        0.502   0.513   8.315   9.330
   53        0.489   0.340   8.302   9.131
   54        0.445   0.498   8.320   9.262
   55        0.501   0.355   8.300   9.156
   56        0.443   0.503   8.319   9.266
   57        0.507   0.506   8.301   9.314
   58        0.502   0.495   8.294   9.291
   59        0.509   0.507   8.321   9.337
   60        0.508   0.502   8.311   9.321
   61        0.520   0.529   8.297   9.346
   62        0.510   0.514   8.286   9.310
   63        0.507   0.508   8.293   9.308
   64        0.504   0.499   8.292   9.295
   65        1.583   3.351   0.000   4.933
   66        1.585   3.328   0.000   4.913
   67        1.582   3.348   0.000   4.929
   68        1.584   3.327   0.000   4.912
   69        1.544   3.556   0.000   5.100
   70        0.623   0.132   0.000   0.755
tot         39.199  46.698 433.646 519.543