 vasp.5.4.4.18Apr17-6-g9f103f2a35 (build Sep 06 2021 19:49:22) complex

 executed on             LinuxIFC date 2022.01.12  05:08:29

 INCAR:
 POTCAR:    PAW_PBE Ni 02Aug2007

 POTCAR:    PAW_PBE Ni 02Aug2007
   VRHFIN =Ni:

   TITEL  = PAW_PBE Ni 02Aug2007
   POMASS =   58.690; ZVAL   =   10.000    mass and valenz
   ENMAX  =  269.532; ENMIN  =  202.149 eV

 Optimization of the real space projectors (new method)

 maximal supplied QI-value         = 16.25
 optimisation between [QCUT,QGAM] = [ 11.54, 23.24] = [ 37.28,151.24] Ry
 Optimized for a Real-space Cutoff    1.45 Angstroem

   l    n(q)    QCUT    max X(q) W(low)/X(q) W(high)/X(q)  e(spline)
   2      9    11.539    60.317    0.19E-03    0.47E-04    0.16E-06
   2      9    11.539    55.921    0.19E-03    0.48E-04    0.16E-06
   0     10    11.539    51.690    0.80E-04    0.50E-04    0.24E-06
   0     10    11.539    30.015    0.73E-04    0.45E-04    0.22E-06
   1     10    11.539    18.849    0.87E-04    0.16E-03    0.71E-07
   1     10    11.539    14.624    0.73E-04    0.13E-03    0.64E-07
  PAW_PBE Ni 02Aug2007                  :

 POSCAR: POSCAR
  positions in direct lattice
  velocities in cartesian coordinates
 exchange correlation table for  LEXCH =        8
   RHO(1)=    0.500       N(1)  =     2000
   RHO(2)=  100.500       N(2)  =     4000

 ion  position               nearest neighbor table
   1  0.113  0.226  0.095-  19 2.49   3 2.49  15 2.49  17 2.49  49 2.49  21 2.49  61 2.49   5 2.49
                            13 2.49
   2  0.113  0.226  0.379-   4 2.45  24 2.45  20 2.45  22 2.49  18 2.49   6 2.49  50 2.49  62 2.49
                            14 2.49
   3  0.196  0.142  0.191-   8 2.44   4 2.44  24 2.44  49 2.49   1 2.49   5 2.49  19 2.49  51 2.49
                            23 2.49  63 2.49   7 2.49  15 2.49
   4  0.030  0.059  0.285-  15 2.44   3 2.44  63 2.44   2 2.45  50 2.45  62 2.45  64 2.49  24 2.49
                            20 2.49  16 2.49  52 2.49   8 2.49
   5  0.363  0.226  0.095-  23 2.49   7 2.49   3 2.49  21 2.49  53 2.49  49 2.49  25 2.49   9 2.49
                             1 2.49
   6  0.363  0.226  0.379-   8 2.45  24 2.45  28 2.45  10 2.49  26 2.49  50 2.49  54 2.49   2 2.49
                            22 2.49
   7  0.446  0.142  0.191-  12 2.44   8 2.44  28 2.44  53 2.49   5 2.49   9 2.49  23 2.49  55 2.49
                            27 2.49  51 2.49  11 2.49   3 2.49
   8  0.280  0.059  0.285-   7 2.44   3 2.44  51 2.44   6 2.45  50 2.45  54 2.45  56 2.49  24 2.49
                            52 2.49  12 2.49  28 2.49   4 2.49
   9  0.613  0.226  0.095-  27 2.49  11 2.49   7 2.49  25 2.49  57 2.49  53 2.49  29 2.49  13 2.49
                             5 2.49
  10  0.613  0.226  0.379-  12 2.45  28 2.45  32 2.45   6 2.49  54 2.49  14 2.49  58 2.49  26 2.49
                            30 2.49
  11  0.696  0.142  0.191-  12 2.44  16 2.44  32 2.44  57 2.49   9 2.49  13 2.49  27 2.49  59 2.49
                            31 2.49  55 2.49  15 2.49   7 2.49
  12  0.530  0.059  0.285-  11 2.44   7 2.44  55 2.44  10 2.45  58 2.45  54 2.45  32 2.49  28 2.49
                            16 2.49  60 2.49   8 2.49  56 2.49
  13  0.863  0.226  0.095-  31 2.49  15 2.49  11 2.49  29 2.49  61 2.49  57 2.49  17 2.49   9 2.49
                             1 2.49
  14  0.863  0.226  0.379-  16 2.45  20 2.45  32 2.45  30 2.49  62 2.49  10 2.49  58 2.49   2 2.49
                            18 2.49
  15  0.946  0.142  0.191-  16 2.44   4 2.44  20 2.44  61 2.49  13 2.49   1 2.49  31 2.49  63 2.49
                            19 2.49  59 2.49   3 2.49  11 2.49
  16  0.780  0.059  0.285-  11 2.44  15 2.44  59 2.44  14 2.45  62 2.45  58 2.45  20 2.49  32 2.49
                            12 2.49   4 2.49  64 2.49  60 2.49
  17  0.113  0.476  0.095-  35 2.49  19 2.49  31 2.49  33 2.49   1 2.49  13 2.49  37 2.49  21 2.49
                            29 2.49
  18  0.113  0.476  0.379-  20 2.45  40 2.45  36 2.46  22 2.49  30 2.49  34 2.49  38 2.49   2 2.49
                            14 2.49
  19  0.196  0.392  0.191-  24 2.44  20 2.44  40 2.44   1 2.49  17 2.49  21 2.49  35 2.49   3 2.49
                            39 2.49  15 2.49  31 2.49  23 2.49
  20  0.030  0.309  0.285-  31 2.44  19 2.44  15 2.44  18 2.45   2 2.45  14 2.45  16 2.49  32 2.49
                             4 2.49  36 2.49  40 2.49  24 2.49
  21  0.363  0.476  0.095-  39 2.49  23 2.49  19 2.49  37 2.49   5 2.49   1 2.49  41 2.49  25 2.49
                            17 2.49
  22  0.363  0.476  0.379-  24 2.45  40 2.45  44 2.45  18 2.49  38 2.49  42 2.49   2 2.49  26 2.49
                             6 2.49
  23  0.446  0.392  0.191-  28 2.44  24 2.44  44 2.44   5 2.49  21 2.49  25 2.49  39 2.49   7 2.49
                            43 2.49   3 2.49  19 2.49  27 2.49
  24  0.280  0.309  0.285-  19 2.44  23 2.44   3 2.44  22 2.45   2 2.45   6 2.45   4 2.49  40 2.49
                             8 2.49  44 2.49  20 2.49  28 2.49
  25  0.613  0.476  0.095-  43 2.49  27 2.49  23 2.49  41 2.49   9 2.49   5 2.49  45 2.49  29 2.49
                            21 2.49
  26  0.613  0.476  0.379-  28 2.45  44 2.45  48 2.45   6 2.49  22 2.49  46 2.49  42 2.49  10 2.49
                            30 2.49
  27  0.696  0.392  0.191-  28 2.44  32 2.44  48 2.44   9 2.49  25 2.49  29 2.49  43 2.49  11 2.49
                            47 2.49   7 2.49  23 2.49  31 2.49
  28  0.530  0.309  0.285-  27 2.44  23 2.44   7 2.44  26 2.45  10 2.45   6 2.45  32 2.49  12 2.49
                            48 2.49  44 2.49   8 2.49  24 2.49
  29  0.863  0.476  0.095-  47 2.49  31 2.49  27 2.49  45 2.49  13 2.49   9 2.49  33 2.49  25 2.49
                            17 2.49
  30  0.863  0.476  0.379-  32 2.45  36 2.45  48 2.45  14 2.49  18 2.49  34 2.49  10 2.49  46 2.49
                            26 2.49
  31  0.946  0.392  0.191-  32 2.44  20 2.44  36 2.44  13 2.49  29 2.49  17 2.49  15 2.49  47 2.49
                            11 2.49  35 2.49  27 2.49  19 2.49
  32  0.780  0.309  0.285-  31 2.44  27 2.44  11 2.44  30 2.45  10 2.45  14 2.45  28 2.49  20 2.49
                            12 2.49  36 2.49  16 2.49  48 2.49
  33  0.113  0.726  0.095-  51 2.49  35 2.49  47 2.49  49 2.49  17 2.49  29 2.49  53 2.49  37 2.49
                            45 2.49
  34  0.113  0.726  0.379-  36 2.45  56 2.45  52 2.45  38 2.49  54 2.49  18 2.49  50 2.49  30 2.49
                            46 2.49
  35  0.196  0.642  0.191-  40 2.44  36 2.44  56 2.44  17 2.49  33 2.49  37 2.49  51 2.49  19 2.49
                            55 2.49  31 2.49  47 2.49  39 2.49
  36  0.030  0.559  0.285-  47 2.44  35 2.44  31 2.44  34 2.45  30 2.45  18 2.46  48 2.49  32 2.49
                            20 2.49  40 2.49  52 2.49  56 2.49
  37  0.363  0.726  0.095-  55 2.49  39 2.49  35 2.49  53 2.49  21 2.49  17 2.49  57 2.49  41 2.49
                            33 2.49
  38  0.363  0.726  0.379-  40 2.45  60 2.45  56 2.46  42 2.49  22 2.49  58 2.49  34 2.49  54 2.49
                            18 2.49
  39  0.446  0.642  0.191-  44 2.44  40 2.44  60 2.44  21 2.49  37 2.49  41 2.49  55 2.49  23 2.49
                            59 2.49  19 2.49  35 2.49  43 2.49
  40  0.280  0.559  0.285-  35 2.44  39 2.44  19 2.44  18 2.45  38 2.45  22 2.45  24 2.49  36 2.49
                            20 2.49  56 2.49  60 2.49  44 2.49
  41  0.613  0.726  0.095-  59 2.49  43 2.49  39 2.49  57 2.49  25 2.49  21 2.49  61 2.49  45 2.49
                            37 2.49
  42  0.613  0.726  0.379-  44 2.45  60 2.45  64 2.46  38 2.49  58 2.49  22 2.49  62 2.49  26 2.49
                            46 2.49
  43  0.696  0.642  0.191-  44 2.44  48 2.44  64 2.44  25 2.49  41 2.49  45 2.49  59 2.49  27 2.49
                            63 2.49  23 2.49  39 2.49  47 2.49
  44  0.530  0.559  0.285-  43 2.44  39 2.44  23 2.44  42 2.45  26 2.45  22 2.45  28 2.49  48 2.49
                            24 2.49  64 2.49  60 2.49  40 2.49
  45  0.863  0.726  0.095-  63 2.49  47 2.49  43 2.49  61 2.49  29 2.49  25 2.49  49 2.49  41 2.49
                            33 2.49
  46  0.863  0.726  0.379-  48 2.45  64 2.45  52 2.45  26 2.49  42 2.49  62 2.49  50 2.49  30 2.49
                            34 2.49
  47  0.946  0.642  0.191-  36 2.44  48 2.44  52 2.44  29 2.49  45 2.49  33 2.49  31 2.49  63 2.49
                            27 2.49  51 2.49  43 2.49  35 2.49
  48  0.780  0.559  0.285-  47 2.44  43 2.44  27 2.44  46 2.45  30 2.45  26 2.45  36 2.49  32 2.49
                            28 2.49  44 2.49  52 2.49  64 2.49
  49  0.113  0.976  0.095-   3 2.49  51 2.49  63 2.49   1 2.49  33 2.49   5 2.49  45 2.49  61 2.49
                            53 2.49
  50  0.113  0.976  0.379-  52 2.45   8 2.45   4 2.45   6 2.49  54 2.49  34 2.49   2 2.49  46 2.49
                            62 2.49
  51  0.196  0.892  0.191-  56 2.44  52 2.44   8 2.44  33 2.49  49 2.49  53 2.49   3 2.49  35 2.49
                             7 2.49  47 2.49  55 2.49  63 2.49
  52  0.030  0.809  0.285-  51 2.44  63 2.44  47 2.44  50 2.45  46 2.45  34 2.45  56 2.49   8 2.49
                            64 2.49   4 2.49  36 2.49  48 2.49
  53  0.363  0.976  0.095-   7 2.49  55 2.49  51 2.49   5 2.49  37 2.49  33 2.49   9 2.49  49 2.49
                            57 2.49
  54  0.363  0.976  0.379-  56 2.45   8 2.45  12 2.45  58 2.49  10 2.49  34 2.49  38 2.49  50 2.49
                             6 2.49
  55  0.446  0.892  0.191-  60 2.44  56 2.44  12 2.44  37 2.49  53 2.49  57 2.49   7 2.49  39 2.49
                            11 2.49  35 2.49  59 2.49  51 2.49
  56  0.280  0.809  0.285-  51 2.44  55 2.44  35 2.44  54 2.45  34 2.45  38 2.46  52 2.49   8 2.49
                            40 2.49  60 2.49  36 2.49  12 2.49
  57  0.613  0.976  0.095-  11 2.49  59 2.49  55 2.49   9 2.49  41 2.49  37 2.49  13 2.49  53 2.49
                            61 2.49
  58  0.613  0.976  0.379-  60 2.45  12 2.45  16 2.45  62 2.49  42 2.49  38 2.49  54 2.49  14 2.49
                            10 2.49
  59  0.696  0.892  0.191-  60 2.44  64 2.44  16 2.44  41 2.49  57 2.49  61 2.49  11 2.49  43 2.49
                            15 2.49  39 2.49  63 2.49  55 2.49
  60  0.530  0.809  0.285-  55 2.44  59 2.44  39 2.44  58 2.45  42 2.45  38 2.45  64 2.49  12 2.49
                            56 2.49  16 2.49  44 2.49  40 2.49
  61  0.863  0.976  0.095-  15 2.49  63 2.49  59 2.49  13 2.49  45 2.49  41 2.49   1 2.49  49 2.49
                            57 2.49
  62  0.863  0.976  0.379-  64 2.45  16 2.45   4 2.45  58 2.49  14 2.49  42 2.49   2 2.49  46 2.49
                            50 2.49
  63  0.946  0.892  0.191-  64 2.44  52 2.44   4 2.44  45 2.49  61 2.49  49 2.49  15 2.49  47 2.49
                             3 2.49  43 2.49  51 2.49  59 2.49
  64  0.780  0.809  0.285-  59 2.44  63 2.44  43 2.44  62 2.45  46 2.45  42 2.46   4 2.49  16 2.49
                            60 2.49  52 2.49  44 2.49  48 2.49

IMPORTANT INFORMATION: All symmetrisations will be switched off!
NOSYMM: (Re-)initialisation of all symmetry stuff for point group C_1.

Automatic generation of k-mesh.
 generate k-points for:    4    4    2
Space group operators:
[...]
   -.737E-01 0.233E+00 -.105E+04   0.987E-01 -.134E+00 0.104E+04   -.217E-02 -.938E-03 0.123E+00   -.212E-01 -.101E+00 0.350E+01
   -.163E-01 -.148E+00 0.312E+04   -.170E-01 0.474E-02 -.311E+04   -.661E-02 0.234E-02 -.134E+01   0.385E-01 0.142E+00 -.601E+00
   0.132E+00 -.231E+00 -.313E+04   -.117E+00 0.116E+00 0.313E+04   0.297E-02 -.375E-02 0.133E+01   -.196E-01 0.122E+00 0.110E+01
   0.460E-01 -.102E+00 0.106E+04   -.859E-01 0.292E-01 -.106E+04   0.769E-02 -.186E-02 -.128E+00   0.313E-01 0.785E-01 0.200E+01
   0.138E+00 0.524E-01 -.105E+04   -.126E+00 -.472E-01 0.104E+04   -.251E-03 0.100E-02 0.120E+00   -.144E-01 -.852E-02 0.347E+01
   0.713E-01 -.836E-01 0.312E+04   -.130E-01 0.525E-02 -.311E+04   -.744E-02 0.563E-02 -.135E+01   -.503E-01 0.718E-01 -.614E+00
   0.181E-01 -.339E+00 -.313E+04   -.842E-02 0.221E+00 0.313E+04   -.342E-02 0.609E-02 0.133E+01   -.617E-02 0.113E+00 0.115E+01
   0.462E-01 0.201E-01 0.106E+04   0.183E-01 0.203E-02 -.106E+04   0.625E-02 -.265E-02 -.130E+00   -.687E-01 -.181E-01 0.203E+01
   0.642E-01 0.197E+00 -.105E+04   -.911E-01 -.164E+00 0.104E+04   0.434E-02 0.338E-03 0.127E+00   0.214E-01 -.377E-01 0.340E+01
   0.170E-01 -.255E-01 0.312E+04   0.172E-01 -.800E-04 -.311E+04   -.731E-02 0.326E-02 -.134E+01   -.264E-01 0.213E-01 -.601E+00
   -.990E-01 -.133E+00 -.313E+04   0.123E+00 0.102E+00 0.313E+04   0.625E-02 0.439E-02 0.132E+01   -.271E-01 0.262E-01 0.114E+01
   -.111E+00 0.514E-01 0.106E+04   0.110E+00 -.229E-02 -.106E+04   0.593E-02 -.209E-02 -.131E+00   -.626E-02 -.432E-01 0.204E+01
   -.115E+00 0.300E+00 -.105E+04   0.105E+00 -.158E+00 0.104E+04   0.438E-04 -.164E-02 0.129E+00   0.911E-02 -.143E+00 0.344E+01
   -.131E+00 -.582E-01 0.312E+04   0.141E-01 0.770E-02 -.311E+04   -.442E-02 0.388E-02 -.135E+01   0.119E+00 0.468E-01 -.602E+00
   0.836E-01 0.661E-01 -.313E+04   -.128E+00 -.988E-01 0.313E+04   -.470E-02 0.167E-02 0.135E+01   0.471E-01 0.307E-01 0.109E+01
   -.159E+00 -.142E+00 0.106E+04   0.472E-01 0.267E-01 -.106E+04   0.770E-02 -.429E-02 -.125E+00   0.102E+00 0.121E+00 0.199E+01
   -.179E+00 -.543E-01 -.105E+04   0.145E+00 -.315E-02 0.104E+04   -.226E-03 -.190E-02 0.139E+00   0.334E-01 0.564E-01 0.344E+01
   -.730E-01 -.994E-01 0.312E+04   0.296E-02 0.275E-02 -.311E+04   -.851E-02 0.391E-02 -.135E+01   0.810E-01 0.898E-01 -.576E+00
   -.296E+00 0.927E-01 -.313E+04   0.220E+00 -.157E+00 0.313E+04   0.107E-02 0.113E-02 0.135E+01   0.800E-01 0.615E-01 0.104E+01
   0.263E-01 -.231E+00 0.106E+04   -.525E-01 0.513E-01 -.106E+04   0.676E-02 -.261E-02 -.130E+00   0.212E-01 0.183E+00 0.198E+01
   -.129E+00 -.120E+00 -.105E+04   0.778E-01 -.130E-01 0.104E+04   0.327E-03 0.574E-02 0.115E+00   0.546E-01 0.123E+00 0.349E+01
   0.677E-01 -.101E+00 0.312E+04   -.137E-01 0.164E-01 -.311E+04   -.564E-02 0.500E-02 -.135E+01   -.503E-01 0.751E-01 -.546E+00
   -.198E+00 -.260E+00 -.313E+04   0.195E+00 0.105E+00 0.313E+04   0.104E-01 -.682E-02 0.135E+01   -.591E-02 0.159E+00 0.101E+01
   0.144E+00 -.232E+00 0.106E+04   -.558E-01 0.111E+00 -.106E+04   0.635E-02 -.392E-02 -.126E+00   -.948E-01 0.128E+00 0.203E+01
   0.193E+00 -.236E+00 -.105E+04   -.200E+00 0.473E-01 0.104E+04   0.141E-03 -.634E-02 0.130E+00   0.170E-02 0.192E+00 0.344E+01
   0.122E+00 -.560E-01 0.312E+04   -.333E-02 0.214E-01 -.311E+04   -.842E-02 0.346E-02 -.135E+01   -.108E+00 0.299E-01 -.583E+00
   0.421E+00 -.262E+00 -.313E+04   -.298E+00 0.175E+00 0.313E+04   -.344E-02 -.823E-02 0.135E+01   -.122E+00 0.957E-01 0.107E+01
   0.814E-02 -.152E+00 0.106E+04   0.590E-01 0.761E-01 -.106E+04   0.515E-02 -.350E-02 -.130E+00   -.723E-01 0.805E-01 0.203E+01
   0.106E+00 -.136E+00 -.105E+04   -.166E-01 0.351E-01 0.104E+04   -.391E-02 0.249E-02 0.135E+00   -.833E-01 0.953E-01 0.343E+01
   -.634E-02 0.400E-01 0.312E+04   -.613E-02 0.597E-02 -.311E+04   -.649E-02 0.492E-02 -.134E+01   0.205E-01 -.507E-01 -.594E+00
   0.404E+00 0.660E-01 -.313E+04   -.310E+00 -.179E-01 0.313E+04   0.630E-02 -.248E-02 0.133E+01   -.102E+00 -.458E-01 0.108E+01
   -.912E-01 -.565E-01 0.105E+04   0.137E-01 0.390E-01 -.106E+04   0.565E-02 -.201E-02 -.129E+00   0.713E-01 0.215E-01 0.203E+01
   0.274E-01 -.158E+00 -.105E+04   0.502E-01 0.111E+00 0.104E+04   -.678E-02 0.328E-02 0.116E+00   -.686E-01 0.433E-01 0.349E+01
   -.141E+00 0.560E-01 0.312E+04   0.397E-02 -.109E-01 -.311E+04   -.720E-02 0.633E-02 -.135E+01   0.142E+00 -.509E-01 -.582E+00
   -.213E-01 0.727E-01 -.313E+04   -.700E-01 -.121E-01 0.313E+04   -.363E-02 -.493E-02 0.132E+01   0.943E-01 -.553E-01 0.107E+01
   -.133E+00 -.158E-02 0.105E+04   0.225E-01 -.588E-02 -.106E+04   0.701E-02 -.356E-02 -.130E+00   0.101E+00 0.140E-01 0.200E+01
   -.220E+00 -.704E-01 -.105E+04   0.991E-01 0.159E-01 0.104E+04   0.785E-02 -.326E-02 0.123E+00   0.113E+00 0.586E-01 0.344E+01
   -.236E-02 0.129E+00 0.312E+04   0.618E-02 -.929E-02 -.311E+04   -.481E-02 0.334E-02 -.135E+01   0.543E-04 -.121E+00 -.558E+00
   -.421E+00 0.184E+00 -.313E+04   0.309E+00 -.896E-01 0.313E+04   0.172E-02 -.398E-02 0.134E+01   0.109E+00 -.892E-01 0.102E+01
   0.628E-01 -.507E-01 0.105E+04   -.303E-02 0.697E-01 -.106E+04   0.643E-02 -.228E-02 -.123E+00   -.660E-01 -.153E-01 0.207E+01
   -.402E-01 -.112E+00 -.105E+04   -.322E-01 0.145E-01 0.104E+04   -.434E-02 -.568E-02 0.108E+00   0.743E-01 0.991E-01 0.348E+01
   0.135E+00 0.967E-01 0.312E+04   -.402E-02 0.817E-02 -.311E+04   -.935E-02 0.388E-02 -.135E+01   -.120E+00 -.106E+00 -.571E+00
   0.232E-01 0.828E-01 -.313E+04   0.818E-01 -.410E-02 0.313E+04   -.611E-02 -.360E-02 0.134E+01   -.949E-01 -.726E-01 0.106E+01
   0.178E+00 -.876E-01 0.105E+04   -.343E-01 0.117E+00 -.106E+04   0.719E-02 -.196E-02 -.129E+00   -.149E+00 -.242E-01 0.208E+01
   0.228E+00 -.206E+00 -.105E+04   -.112E+00 0.124E+00 0.104E+04   0.352E-02 -.256E-02 0.125E+00   -.120E+00 0.827E-01 0.345E+01
   0.258E-01 0.243E-01 0.312E+04   -.805E-02 -.424E-02 -.311E+04   -.605E-02 0.528E-02 -.135E+01   -.115E-01 -.252E-01 -.603E+00
   0.315E+00 0.160E+00 -.313E+04   -.237E+00 -.820E-01 0.313E+04   -.734E-02 0.160E-02 0.133E+01   -.715E-01 -.805E-01 0.108E+01
   0.447E-01 0.729E-01 0.105E+04   -.607E-01 -.268E-02 -.106E+04   0.595E-02 -.395E-02 -.130E+00   0.638E-02 -.643E-01 0.205E+01
   0.195E+00 0.141E+00 -.105E+04   -.792E-01 -.265E-01 0.104E+04   -.101E-01 0.251E-02 0.123E+00   -.105E+00 -.119E+00 0.350E+01
   -.720E-01 0.281E-01 0.312E+04   -.150E-01 -.108E-01 -.311E+04   -.655E-02 0.292E-02 -.135E+01   0.923E-01 -.226E-01 -.629E+00
   0.114E+00 -.289E-01 -.313E+04   -.115E+00 0.617E-01 0.313E+04   0.726E-02 -.157E-04 0.133E+01   -.662E-02 -.320E-01 0.112E+01
   -.671E-01 0.147E+00 0.106E+04   -.192E-01 -.519E-01 -.106E+04   0.677E-02 -.246E-02 -.132E+00   0.808E-01 -.905E-01 0.202E+01
   -.361E-01 0.140E+00 -.105E+04   -.107E-01 -.845E-01 0.104E+04   -.568E-03 -.101E-02 0.131E+00   0.479E-01 -.579E-01 0.342E+01
   0.219E-01 0.158E+00 0.312E+04   0.613E-02 -.204E-01 -.311E+04   -.834E-02 0.279E-02 -.135E+01   -.178E-01 -.140E+00 -.570E+00
   -.673E-01 0.164E-01 -.313E+04   0.240E-01 0.851E-01 0.313E+04   -.407E-02 0.457E-02 0.133E+01   0.493E-01 -.106E+00 0.105E+01
   -.381E-01 0.259E+00 0.105E+04   0.540E-01 -.596E-01 -.106E+04   0.719E-02 -.242E-02 -.129E+00   -.240E-01 -.191E+00 0.206E+01
   -.132E+00 0.317E+00 -.105E+04   0.271E-01 -.198E+00 0.104E+04   0.748E-03 0.243E-02 0.142E+00   0.101E+00 -.124E+00 0.338E+01
   0.106E-01 0.161E+00 0.312E+04   0.169E-01 -.138E-01 -.311E+04   -.609E-02 0.362E-02 -.135E+01   -.213E-01 -.150E+00 -.593E+00
   -.366E+00 0.240E+00 -.313E+04   0.326E+00 -.729E-01 0.313E+04   -.100E-02 -.373E-02 0.135E+01   0.425E-01 -.161E+00 0.104E+01
   0.798E-01 0.155E+00 0.105E+04   0.233E-01 0.928E-02 -.106E+04   0.604E-02 -.545E-02 -.129E+00   -.107E+00 -.156E+00 0.208E+01
   -.299E-01 0.322E+00 -.105E+04   0.639E-01 -.163E+00 0.104E+04   0.903E-02 -.191E-02 0.120E+00   -.428E-01 -.161E+00 0.346E+01
   -.593E-02 -.796E-02 -.955E+02   -.126E-12 -.606E-12 -.750E-11   -.105E-01 -.749E-03 -.261E+00   0.163E-01 -.261E-02 0.956E+02

 POSITION                                       TOTAL-FORCE (eV/Angst)
      0.00000      1.94796      2.00000         0.000605     -0.003165      0.257859
      0.00008      1.94863      7.99901        -0.000714     -0.002779      0.002588
      1.24592      1.22862      4.03458        -0.000376      0.001680     -0.274640
     -0.00008      0.51053      6.01041         0.001620     -0.002962      0.015558
      2.49184      1.94796      2.00000        -0.001440      0.001265      0.256395
      2.49204      1.94838      7.99904        -0.000933      0.002820      0.002841
      3.73777      1.22862      4.03458        -0.000982      0.003972     -0.275406
      2.49193      0.51050      6.01010        -0.002380     -0.002110      0.017200
      4.98369      1.94796      2.00000         0.000589     -0.000823      0.258096
      4.98360      1.94836      7.99892         0.000032      0.000499      0.001897
      6.22961      1.22862      4.03458         0.001969      0.001557     -0.276078
      4.98380      0.51064      6.01001        -0.001159     -0.004414      0.017346
      7.47553      1.94796      2.00000         0.000533     -0.000854      0.255534
      7.47528      1.94837      7.99915         0.003003     -0.000238      0.003834
      8.72146      1.22862      4.03458        -0.001169      0.004013     -0.275549
      7.47551      0.51063      6.01007        -0.000510     -0.002291      0.017602
     -1.24592      4.10596      2.00000        -0.002127      0.000383      0.257548
     -1.24567      4.10666      7.99909        -0.002249     -0.000086      0.000584
      0.00000      3.38662      4.03458        -0.002362      0.000878     -0.273969
     -1.24616      2.66837      6.01025        -0.000862     -0.002688      0.015538
      1.24592      4.10596      2.00000         0.002530     -0.002760      0.259288
      1.24558      4.10673      7.99907         0.004140     -0.001564      0.000105
      2.49184      3.38662      4.03458         0.001770      0.000746     -0.274507
      1.24584      2.66842      6.01029         0.003580     -0.003823      0.016106
      3.73777      4.10596      2.00000        -0.001883     -0.003975      0.258391
      3.73741      4.10642      7.99899         0.001292     -0.002293     -0.000687
      4.98369      3.38662      4.03458        -0.000567      0.003077     -0.275197
      3.73801      2.66847      6.01015        -0.004996     -0.002883      0.015697
      6.22961      4.10596      2.00000         0.002468     -0.001104      0.257702
      6.23012      4.10635      7.99899        -0.001910      0.000670      0.000601
      7.47553      3.38662      4.03458        -0.000047      0.001781     -0.276263
      6.22961      2.66846      6.01007         0.001703     -0.002814      0.016830
     -2.49184      6.26396      2.00000         0.001533      0.000367      0.256099
     -2.49148      6.26459      7.99908        -0.001034     -0.000095      0.001678
     -1.24592      5.54462      4.03458        -0.000510      0.002068     -0.273992
     -2.49203      4.82634      6.01019         0.002237     -0.001042      0.017024
      0.00000      6.26396      2.00000        -0.002173      0.000737      0.257659
      0.00013      6.26463      7.99926        -0.000536      0.000543      0.001852
      1.24592      5.54462      4.03458        -0.002528      0.003185     -0.273889
     -0.00017      4.82635      6.01024        -0.000821      0.001072      0.014696
      2.49184      6.26396      2.00000        -0.000938      0.002124      0.258895
      2.49145      6.26459      7.99914        -0.000593      0.001556     -0.000557
      3.73777      5.54462      4.03458         0.000265      0.001515     -0.273467
      2.49201      4.82640      6.01025        -0.002472     -0.003442      0.016360
      4.98369      6.26396      2.00000         0.001864      0.002545      0.258601
      4.98348      6.26444      7.99885         0.003945      0.002664      0.001239
      6.22961      5.54462      4.03458         0.001970      0.003020     -0.275985
      4.98384      4.82637      6.01026        -0.000456     -0.001144      0.015908
     -3.73777      8.42196      2.00000         0.000173      0.000356      0.255138
     -3.73746      8.42258      7.99919        -0.000752     -0.000175      0.001266
     -2.49184      7.70262      4.03458        -0.003603      0.002169     -0.274853
     -3.73775      6.98453      6.01037         0.001103     -0.002106      0.015653
     -1.24592      8.42196      2.00000        -0.001192     -0.002144      0.256775
     -1.24572      8.42244      7.99898        -0.000308      0.000943      0.003097
      0.00000      7.70262      4.03458         0.001358      0.002095     -0.275568
     -1.24597      6.98445      6.01022         0.000568     -0.003566      0.016006
      1.24592      8.42196      2.00000         0.001878      0.000283      0.256434
      1.24584      8.42242      7.99895         0.001851      0.000647      0.002825
      2.49184      7.70262      4.03458        -0.000890      0.005419     -0.274582
      1.24592      6.98455      6.01019        -0.002982     -0.002871      0.016129
      3.73777      8.42196      2.00000         0.000121      0.000710      0.256473
      3.73734      8.42264      7.99924         0.001513      0.002232      0.000694
      4.98369      7.70262      4.03458         0.001997      0.003489     -0.274765
      3.73777      6.98470      6.01032         0.000241     -0.002867      0.014315
    total drift:                               -0.000192     -0.011318     -0.182682

  FREE ENERGIE OF THE ION-ELECTRON SYSTEM (eV)
  free  energy   TOTEN  =      -347.06068056 eV

  energy  without entropy=     -347.06068056  energy(sigma->0) =     -347.06068056

 writing wavefunctions

 total charge

[...]

 magnetization (x)

# of ion       s       p       d       tot
    1       -0.006  -0.022   0.694   0.666
    2       -0.006  -0.023   0.710   0.682
    3       -0.006  -0.025   0.716   0.684
    4       -0.006  -0.025   0.727   0.695
    5       -0.005  -0.022   0.692   0.664
    6       -0.006  -0.023   0.709   0.680
    7       -0.006  -0.025   0.717   0.685
    8       -0.006  -0.025   0.726   0.695
    9       -0.006  -0.022   0.693   0.665
   10       -0.006  -0.023   0.710   0.681
   11       -0.006  -0.025   0.717   0.685
   12       -0.006  -0.025   0.727   0.696
   13       -0.005  -0.022   0.691   0.663
   14       -0.006  -0.023   0.708   0.680
   15       -0.006  -0.025   0.716   0.685
   16       -0.006  -0.025   0.726   0.694
   17       -0.006  -0.022   0.691   0.663
   18       -0.006  -0.023   0.708   0.680
   19       -0.006  -0.025   0.718   0.686
   20       -0.006  -0.025   0.726   0.694
   21       -0.006  -0.022   0.693   0.665
   22       -0.006  -0.023   0.710   0.681
   23       -0.006  -0.025   0.716   0.685
   24       -0.006  -0.025   0.727   0.695
   25       -0.006  -0.022   0.692   0.664
   26       -0.006  -0.023   0.710   0.681
   27       -0.006  -0.025   0.716   0.685
   28       -0.006  -0.025   0.725   0.694
   29       -0.006  -0.023   0.692   0.664
   30       -0.006  -0.023   0.710   0.681
   31       -0.006  -0.025   0.716   0.685
   32       -0.006  -0.025   0.725   0.693
   33       -0.006  -0.022   0.691   0.663
   34       -0.006  -0.023   0.709   0.681
   35       -0.006  -0.025   0.716   0.684
   36       -0.006  -0.025   0.726   0.694
   37       -0.006  -0.023   0.693   0.665
   38       -0.006  -0.023   0.710   0.682
   39       -0.006  -0.025   0.717   0.685
   40       -0.006  -0.025   0.727   0.695
   41       -0.006  -0.022   0.694   0.665
   42       -0.006  -0.023   0.711   0.682
   43       -0.007  -0.025   0.717   0.685
   44       -0.006  -0.025   0.727   0.695
   45       -0.006  -0.022   0.691   0.663
   46       -0.006  -0.023   0.710   0.681
   47       -0.006  -0.025   0.717   0.685
   48       -0.006  -0.025   0.727   0.695
   49       -0.005  -0.022   0.692   0.664
   50       -0.006  -0.023   0.710   0.681
   51       -0.006  -0.025   0.716   0.685
   52       -0.006  -0.025   0.727   0.695
   53       -0.006  -0.022   0.692   0.663
   54       -0.006  -0.023   0.709   0.680
   55       -0.006  -0.025   0.717   0.686
   56       -0.006  -0.025   0.727   0.695
   57       -0.005  -0.022   0.692   0.664
   58       -0.006  -0.023   0.709   0.681
   59       -0.006  -0.025   0.717   0.685
   60       -0.006  -0.025   0.727   0.695
   61       -0.006  -0.022   0.691   0.663
   62       -0.006  -0.023   0.709   0.680
   63       -0.006  -0.025   0.717   0.685
   64       -0.007  -0.025   0.727   0.695
tot         -0.388  -1.534  45.516  43.594

 BZINTS: Fermi energy:  0.552756;640.000000 electrons
         Band energy:***********;  BLOECHL correction: -0.115782