 vasp.5.4.4.18Apr17-6-g9f103f2a35 (build Dec 15 2018 21:27:54) gamma-only

 executed on             LinuxIFC date 2022.03.11  16:27:32

 INCAR:
 POTCAR:    PAW_PBE Ni 02Aug2007
 POTCAR:    PAW_PBE Fe 06Sep2000
 POTCAR:    PAW_PBE O 08Apr2002

 POTCAR:    PAW_PBE Ni 02Aug2007
   VRHFIN =Ni:

   TITEL  = PAW_PBE Ni 02Aug2007
   POMASS =   58.690; ZVAL   =   10.000    mass and valenz
   ENMAX  =  269.532; ENMIN  =  202.149 eV

 POTCAR:    PAW_PBE Fe 06Sep2000
   VRHFIN =Fe:  d7 s1

   TITEL  = PAW_PBE Fe 06Sep2000
   POMASS =   55.847; ZVAL   =    8.000    mass and valenz
   ENMAX  =  267.882; ENMIN  =  200.911 eV

 POTCAR:    PAW_PBE O 08Apr2002
   VRHFIN =O: s2p4

   TITEL  = PAW_PBE O 08Apr2002
   POMASS =   16.000; ZVAL   =    6.000    mass and valenz
   ENMAX  =  400.000; ENMIN  =  300.000 eV

 Optimization of the real space projectors (new method)

 maximal supplied QI-value         = 16.25
 optimisation between [QCUT,QGAM] = [ 11.54, 23.24] = [ 37.28,151.24] Ry
 Optimized for a Real-space Cutoff    1.45 Angstroem

   l    n(q)    QCUT    max X(q) W(low)/X(q) W(high)/X(q)  e(spline)
   2      9    11.539    60.317    0.19E-03    0.47E-04    0.16E-06
   2      9    11.539    55.921    0.19E-03    0.48E-04    0.16E-06
   0     10    11.539    51.690    0.80E-04    0.50E-04    0.24E-06
   0     10    11.539    30.015    0.73E-04    0.45E-04    0.22E-06
   1     10    11.539    18.849    0.87E-04    0.16E-03    0.71E-07
   1     10    11.539    14.624    0.73E-04    0.13E-03    0.64E-07
 Optimization of the real space projectors (new method)

[...]

   l    n(q)    QCUT    max X(q) W(low)/X(q) W(high)/X(q)  e(spline)
   2     10    11.539    80.901    0.11E-03    0.14E-03    0.21E-06
   2     10    11.539    75.754    0.11E-03    0.14E-03    0.22E-06
   0     11    11.539    58.752    0.52E-04    0.18E-04    0.33E-06
   0     11    11.539    30.679    0.44E-04    0.16E-04    0.30E-06
   1     10    11.539    17.977    0.53E-04    0.29E-04    0.13E-06
   1     10    11.539    13.559    0.44E-04    0.25E-04    0.11E-06
 Optimization of the real space projectors (new method)

 maximal supplied QI-value         = 24.76
 optimisation between [QCUT,QGAM] = [ 11.64, 23.27] = [ 37.91,151.63] Ry
 Optimized for a Real-space Cutoff    1.14 Angstroem

   l    n(q)    QCUT    max X(q) W(low)/X(q) W(high)/X(q)  e(spline)
   0      8    11.635    20.381    0.10E-03    0.33E-03    0.24E-06
   0      8    11.635    15.268    0.11E-03    0.35E-03    0.26E-06
   1      7    11.635     5.964    0.24E-03    0.31E-03    0.30E-06
   1      7    11.635     5.382    0.22E-03    0.25E-03    0.26E-06
  PAW_PBE Ni 02Aug2007                  :
  PAW_PBE Fe 06Sep2000                  :
  PAW_PBE O 08Apr2002                   :

 POSCAR: POSCAR
  positions in direct lattice
  velocities in cartesian coordinates
 exchange correlation table for  LEXCH =        8
   RHO(1)=    0.500       N(1)  =     2000
   RHO(2)=  100.500       N(2)  =     4000

 VTST: version 3.2, (02/03/18)

 CHAIN: initializing optimizer

 OPT: Using VASP Dynamics algorithm
 CHAIN: Read ICHAIN            0

 POSCAR: POSCAR
  positions in direct lattice
  velocities in cartesian coordinates

 ion  position               nearest neighbor table
   1  0.999  0.001  0.287-  47 2.46  18 2.47  50 2.48  41 2.48   8 2.49  49 2.49   5 2.49  26 2.50
                             2 2.50  33 2.50   4 2.52   6 2.53
   2  0.250  0.002  0.285-  11 2.45  51 2.45  44 2.46  50 2.46   3 2.50   1 2.50   6 2.50  26 2.51
                             9 2.51  27 2.53  41 2.54  43 2.54
   3  0.497  0.999  0.287-  64 2.43  14 2.44  51 2.44  17 2.47  45 2.47  43 2.48  27 2.49   2 2.50
                             4 2.51   9 2.52  12 2.54  30 2.54
   4  0.748  0.999  0.286-  16 2.43  17 2.45  48 2.45  18 2.47  30 2.49  64 2.49   3 2.51   5 2.51
                             1 2.52  33 2.52  12 2.52  47 2.52
   5  0.999  0.249  0.287-  60 2.43  16 2.43  18 2.48  22 2.48   1 2.49  52 2.51  12 2.51   4 2.51
                            21 2.51   6 2.51  19 2.52   8 2.53
   6  0.252  0.253  0.287-  11 2.42  56 2.46  52 2.47  22 2.48   9 2.50   2 2.50   5 2.51  50 2.52
                             1 2.53  53 2.54  55 2.54   8 2.55
   7  0.083  0.166  0.096-  50 2.47  15 2.50  40 2.50  18 2.50  54 2.50  10 2.50  46 2.51  22 2.51
                            20 2.51
   8  0.080  0.161  0.385-  67 1.85  47 2.40  41 2.43   1 2.49  11 2.50  16 2.51  55 2.52   5 2.53
                             6 2.55  21 2.57
   9  0.500  0.252  0.287-  11 2.43  59 2.45  56 2.46  53 2.48   6 2.50  12 2.51  14 2.51   2 2.51
                            23 2.52   3 2.52  51 2.53  25 2.64
  10  0.333  0.167  0.096-  13 2.50  56 2.50   7 2.50  24 2.51  40 2.51  42 2.51  50 2.51  54 2.52
                            51 2.52
  11  0.332  0.167  0.379-   6 2.42   9 2.43   2 2.45  55 2.48  25 2.49  41 2.50   8 2.50  14 2.51
                            43 2.52
  12  0.750  0.252  0.287-  59 2.43  16 2.43  60 2.44  58 2.46  17 2.49  23 2.50   9 2.51   5 2.51
                            14 2.51  19 2.52   4 2.52   3 2.54
  13  0.582  0.167  0.097-  51 2.48  24 2.49  42 2.50  17 2.50  10 2.50  63 2.52  59 2.52  57 2.52
                            15 2.53
  14  0.576  0.155  0.382-  65 1.82  64 2.39  43 2.41   3 2.44   9 2.51  16 2.51  11 2.51  12 2.51
                            25 2.59  58 2.61
  15  0.834  0.167  0.096-  20 2.49  60 2.49  18 2.49  46 2.49   7 2.50  17 2.51  63 2.51  57 2.53
                            13 2.53
  16  0.831  0.164  0.379-  12 2.43   5 2.43   4 2.43  47 2.46  58 2.47   8 2.51  64 2.51  14 2.51
                            21 2.51
  17  0.666  0.083  0.193-   4 2.45   3 2.47  60 2.47  51 2.48  12 2.49  59 2.49  13 2.50  45 2.50
                            48 2.51  15 2.51  63 2.51  18 2.52
  18  0.916  0.082  0.192-  50 2.46  60 2.47   1 2.47   4 2.47   5 2.48  46 2.48  15 2.49  49 2.50
                            48 2.50   7 2.50  22 2.51  17 2.52
  19  0.003  0.502  0.286-  60 2.47  29 2.47  27 2.48  39 2.48  52 2.49  21 2.49  58 2.50  61 2.50
                            23 2.52   5 2.52  12 2.52  26 2.52
  20  0.081  0.416  0.096-  61 2.48  15 2.49  57 2.49  22 2.50  54 2.51  28 2.51   7 2.51  31 2.52
                            60 2.53
  21  0.079  0.417  0.383-  67 1.85  58 2.39  29 2.45  19 2.49  32 2.51   5 2.51  16 2.51  52 2.52
                            55 2.54   8 2.57
  22  0.166  0.334  0.192-  52 2.47   5 2.48   6 2.48  60 2.49  54 2.49  36 2.50  20 2.50  50 2.50
                             7 2.51  18 2.51  56 2.52  61 2.54
  23  0.752  0.502  0.288-  53 2.46  59 2.47  33 2.49  26 2.50  38 2.50  12 2.50  39 2.50  19 2.52
                            58 2.52   9 2.52  62 2.54  25 2.69
  24  0.584  0.416  0.096-  13 2.49  62 2.49  57 2.50  10 2.51  56 2.51  34 2.51  37 2.52  54 2.53
                            59 2.54
  25  0.579  0.414  0.393-  69 1.82  65 1.91  55 2.49  11 2.49  35 2.51  53 2.58  38 2.58  14 2.59
                            58 2.61   9 2.64  23 2.69
  26  0.000  0.752  0.287-  49 2.46  44 2.48  33 2.49  38 2.49  23 2.50   1 2.50  39 2.51   2 2.51
                            27 2.51  29 2.51  41 2.51  19 2.52
  27  0.249  0.749  0.285-  32 2.45  45 2.45  61 2.46  44 2.47  19 2.48   3 2.49  26 2.51  52 2.52
                            29 2.52  43 2.53   2 2.53  30 2.54
  28  0.084  0.668  0.095-  61 2.47  39 2.50  40 2.50  37 2.50  31 2.50  42 2.50  57 2.51  44 2.51
                            20 2.51
  29  0.081  0.662  0.382-  66 1.84  21 2.45  58 2.47  19 2.47  38 2.48  32 2.50  26 2.51  27 2.52
                            43 2.54  41 2.57
  30  0.502  0.748  0.288-  32 2.43  64 2.45  48 2.47  53 2.49   4 2.49  33 2.49  45 2.50  36 2.51
                            52 2.52   3 2.54  27 2.54  35 2.61
  31  0.333  0.667  0.094-  61 2.47  42 2.50  54 2.50  28 2.50  63 2.50  34 2.51  36 2.52  45 2.52
                            20 2.52
  32  0.332  0.664  0.378-  52 2.41  30 2.43  27 2.45  35 2.48  64 2.50  29 2.50  21 2.51  55 2.52
                            43 2.52
  33  0.751  0.750  0.287-  53 2.46  49 2.47  48 2.48  62 2.48  23 2.49  26 2.49  30 2.49   1 2.50
                            38 2.51   4 2.52  47 2.54  35 2.69
  34  0.583  0.667  0.095-  62 2.47  36 2.50  63 2.50  46 2.51  31 2.51  37 2.51  54 2.51  24 2.51
                            48 2.53
  35  0.577  0.663  0.392-  69 1.83  68 1.91  32 2.48  55 2.49  25 2.51  53 2.56  64 2.56  38 2.59
                            30 2.61  47 2.62  33 2.69
  36  0.417  0.582  0.191-  54 2.47  22 2.50  34 2.50  62 2.50  45 2.51  30 2.51  52 2.51  56 2.51
                            48 2.51  61 2.51  31 2.52  53 2.58
  37  0.834  0.668  0.095-  62 2.47  40 2.50  57 2.50  39 2.50  28 2.50  46 2.51  49 2.51  34 2.51
                            24 2.52
  38  0.838  0.669  0.384-  69 1.81  29 2.48  41 2.48  26 2.49  23 2.50  33 2.51  47 2.54  58 2.56
                            25 2.58  35 2.59
  39  0.917  0.583  0.191-  19 2.48  57 2.49  28 2.50  37 2.50  23 2.50  61 2.50  26 2.51  49 2.51
                            59 2.51  62 2.51  44 2.51  60 2.56
  40  0.083  0.917  0.095-  50 2.49  44 2.49  37 2.50  28 2.50   7 2.50  10 2.51  49 2.51  46 2.51
                            42 2.52
  41  0.082  0.920  0.383-  66 1.83   8 2.43  47 2.45   1 2.48  38 2.48  11 2.50  26 2.51   2 2.54
                            43 2.54  29 2.57
  42  0.334  0.917  0.095-  51 2.48  13 2.50  63 2.50  31 2.50  44 2.50  28 2.50  10 2.51  45 2.51
                            40 2.52
  43  0.334  0.917  0.383-  66 1.83  14 2.41  64 2.43   3 2.48  32 2.52  11 2.52  27 2.53   2 2.54
                            41 2.54  29 2.54
  44  0.167  0.835  0.191-   2 2.46  27 2.47  51 2.47  26 2.48  61 2.49  49 2.49  40 2.49  42 2.50
                            50 2.50  28 2.51  39 2.51  45 2.53
  45  0.417  0.832  0.192-  27 2.45  61 2.47  51 2.47   3 2.47  48 2.49  63 2.50  30 2.50  17 2.50
                            36 2.51  42 2.51  31 2.52  44 2.53
  46  0.832  0.917  0.096-  18 2.48  48 2.49  15 2.49  63 2.50  49 2.50   7 2.51  34 2.51  37 2.51
                            40 2.51
  47  0.839  0.923  0.383-  68 1.85   8 2.40  41 2.45   1 2.46  16 2.46   4 2.52  33 2.54  38 2.54
                            64 2.60  35 2.62
  48  0.666  0.833  0.192-   4 2.45  62 2.47  30 2.47  33 2.48  45 2.49  46 2.49  18 2.50  63 2.50
                            17 2.51  36 2.51  49 2.52  34 2.53
  49  0.917  0.833  0.192-  26 2.46  62 2.46  33 2.47  50 2.47   1 2.49  44 2.49  18 2.50  46 2.50
                            39 2.51  40 2.51  37 2.51  48 2.52
  50  0.162  0.082  0.191-  18 2.46   2 2.46   7 2.47  49 2.47   1 2.48  40 2.49  44 2.50  22 2.50
                            10 2.51   6 2.52  56 2.53  51 2.57
  51  0.416  0.078  0.192-   3 2.44   2 2.45  44 2.47  45 2.47  42 2.48  17 2.48  13 2.48  10 2.52
                             9 2.53  59 2.54  56 2.54  50 2.57
  52  0.249  0.499  0.287-  32 2.41  22 2.47   6 2.47  19 2.49   5 2.51  36 2.51  27 2.52  21 2.52
                            30 2.52  61 2.55  53 2.57  55 2.57
  53  0.507  0.503  0.291-  33 2.46  23 2.46   9 2.48  30 2.49   6 2.54  35 2.56  55 2.56  56 2.56
[...]
     -1.24713      7.96174      8.10699         0.196365     -0.102707      0.057938
     -2.51584      7.25277      4.05487         0.167795     -0.043997     -0.035027
      0.00963      7.22591      4.06957        -0.023159      0.124651     -0.280970
      3.74757      7.96401      2.04130        -0.149679     -0.071815      0.037968
      3.78897      8.01345      8.11989        -0.240998     -0.239091      0.090436
      2.50222      7.23652      4.07555        -0.001039     -0.024548     -0.312070
      5.01801      7.23500      4.07176        -0.065669      0.112483     -0.087949
      1.20950      0.71304      4.05362         0.788878      0.400890     -0.022746
      3.78049      0.67792      4.06351        -0.620135      1.077481     -0.255040
     -0.00094      4.32979      6.08970         0.545513      0.270914     -0.510989
      2.56471      4.36878      6.16367        -0.799954     -0.433097     -0.884746
      1.23098      3.62224      2.02941         0.355850     -0.243115      1.025927
      1.24147      3.58652      8.21197        -0.950649     -0.267416     -0.309474
      2.51334      2.87806      4.07938         0.086373      0.211166     -0.177548
      6.26024      3.63306      2.00212         0.083431     -0.295624      1.440170
      6.33193      3.59076      8.10391        -0.643853     -0.397352      0.454407
      5.02463      2.88643      4.11822        -0.197750      0.238262     -0.781171
      7.52997      2.83909      4.10996        -0.517957      1.075929     -0.881735
     -1.25360      5.10876      4.01488         0.012291     -0.846302      0.538196
      3.75975      5.11705      4.02298        -0.008040     -1.125368      0.631891
      1.25181      7.95850      2.03067        -0.014751     -0.005001      0.839602
      1.18628      7.96209      8.05778         0.569270     -0.262914      0.410592
      5.17826      2.74669      9.24332         0.573063      0.527659     -0.712230
     -2.51543      7.22584      9.20053        -0.054356      0.041170     -0.093922
     -0.06887      2.86412      9.28299         0.838768      0.313914     -0.651348
      2.42996      7.43318      9.23309        -0.721365      0.268740     -0.667436
      3.85631      5.12513      9.29698         0.179822      0.114391      0.357372
    total drift:                               -0.001065      0.006798     -0.000101

  FREE ENERGIE OF THE ION-ELECTRON SYSTEM (eV)
  free  energy   TOTEN  =      -419.20247844 eV

  energy  without entropy=     -416.09824897  energy(sigma->0) =     -417.65036370

 d Force =-0.4373224E-02[-0.107E-01, 0.197E-02]  d Energy =-0.4306308E-02-0.669E-04
 d Force =-0.6614833E+02[-0.661E+02,-0.661E+02]  d Ewald  =-0.6614981E+02 0.148E-02

 stress matrix after NEB project (eV)
    -77.81468     -1.50964     -0.03899
     -1.50964    -75.43073      1.16079
     -0.03899      1.16079    -26.95238
  FORCES: max atom, RMS     0.416096    0.050092
  FORCE total and by dimension    0.416096    0.357372
  Stress total and by dimension  111.707681   77.814679
 Finite differences progress:
  Degree of freedom:   3/  3
  Displacement:        2/  2
  Total:               6/  6

 SECOND DERIVATIVES (NOT SYMMETRIZED)
              69X         69Y         69Z
 69X   -10.878140    1.136605   -0.250260
 69Y     1.129282  -12.496766   -0.247311
 69Z    -0.248258   -0.379637  -14.106504

 Eigenvectors and eigenvalues of the dynamical matrix

   1 f  =   14.710007 THz    92.425702 2PiTHz  490.673013 cm-1    60.835722 meV
             X         Y         Z           dx          dy          dz
     10.016176  0.006177  6.088774            0           0           0
      2.490649  0.020102  6.040923            0           0           0
     -0.023059  8.674033  6.071765            0           0           0
      2.487011  8.674641  6.059960            0           0           0
      8.769317  2.159098  6.080436            0           0           0
      1.256464  2.198242  6.087902            0           0           0
     -0.002848  1.444334  2.027296            0           0           0
     -0.009071  1.398614  8.147924            0           0           0
      3.751854  2.187553  6.090347            0           0           0
      2.501779  1.448901  2.028694            0           0           0
      2.488204  1.453695  8.028597            0           0           0
      6.257806  2.186226  6.088472            0           0           0
      5.000415  1.451879  2.049057            0           0           0
      4.998617  1.346395  8.095690            0           0           0
      7.526795  1.447737  2.043718            0           0           0
      7.509987  1.422763  8.029295            0           0           0
      6.257241  0.721203  4.080676            0           0           0
      8.777249  0.712311  4.069361            0           0           0
     -2.487748  4.354834  6.057982            0           0           0
     -1.274668  3.613152  2.033059            0           0           0
     -1.301098  3.621182  8.125056            0           0           0
     -0.008603  2.899851  4.069912            0           0           0
      5.024244  4.360454  6.094521            0           0           0
      3.764922  3.613804  2.032742            0           0           0
      3.729522  3.594964  8.329531            0           0           0
     -3.764966  6.528091  6.075752            0           0           0
     -1.259089  6.507324  6.042717            0           0           0
     -2.509640  5.801439  2.008671            0           0           0
     -2.504768  5.752251  8.099950            0           0           0
      1.281917  6.498533  6.092928            0           0           0
     -0.006663  5.794258  2.000004            0           0           0
     -0.004760  5.768444  8.017293            0           0           0
      3.773789  6.509551  6.078828            0           0           0
      2.503083  5.789092  2.002568            0           0           0
      2.462070  5.759133  8.306240            0           0           0
      1.259453  5.053778  4.043256            0           0           0
      5.014448  5.797983  2.012527            0           0           0
      5.046067  5.808648  8.129385            0           0           0
      6.271379  5.064519  4.042768            0           0           0
     -3.765172  7.961479  2.016913            0           0           0
     -3.787283  7.984890  8.117689            0           0           0
     -1.246538  7.963181  2.021066            0           0           0
     -1.247128  7.961744  8.106992            0           0           0
     -2.515837  7.252772  4.054867            0           0           0
      0.009631  7.225914  4.069573            0           0           0
      3.747565  7.964015  2.041302            0           0           0
      3.788973  8.013452  8.119893            0           0           0
      2.502221  7.236516  4.075548            0           0           0
      5.018012  7.234997  4.071755            0           0           0
      1.209504  0.713040  4.053617            0           0           0
      3.780488  0.677925  4.063513            0           0           0
     -0.000945  4.329788  6.089704            0           0           0
      2.564710  4.368784  6.163674            0           0           0
      1.230982  3.622235  2.029415            0           0           0
      1.241469  3.586523  8.211970            0           0           0
      2.513335  2.878065  4.079383            0           0           0
      6.260244  3.633063  2.002123            0           0           0
      6.331931  3.590757  8.103912            0           0           0
      5.024625  2.886427  4.118223            0           0           0
      7.529969  2.839093  4.109959            0           0           0
     -1.253597  5.108762  4.014883            0           0           0
      3.759753  5.117054  4.022978            0           0           0
      1.251807  7.958501  2.030665            0           0           0
      1.186279  7.962086  8.057776            0           0           0
      5.178264  2.746690  9.243320            0           0           0
     -2.515428  7.225844  9.200529            0           0           0
     -0.068867  2.864118  9.282990            0           0           0
      2.429964  7.433179  9.233093            0           0           0
      3.856308  5.125131  9.311981    -0.014260   -0.175203   -0.984429

[...]

   3 f  =   12.519091 THz    78.659767 2PiTHz  417.591904 cm-1    51.774816 meV
             X         Y         Z           dx          dy          dz
     10.016176  0.006177  6.088774            0           0           0
      2.490649  0.020102  6.040923            0           0           0
     -0.023059  8.674033  6.071765            0           0           0
      2.487011  8.674641  6.059960            0           0           0
      8.769317  2.159098  6.080436            0           0           0
      1.256464  2.198242  6.087902            0           0           0
     -0.002848  1.444334  2.027296            0           0           0
     -0.009071  1.398614  8.147924            0           0           0
      3.751854  2.187553  6.090347            0           0           0
      2.501779  1.448901  2.028694            0           0           0
      2.488204  1.453695  8.028597            0           0           0
      6.257806  2.186226  6.088472            0           0           0
      5.000415  1.451879  2.049057            0           0           0
      4.998617  1.346395  8.095690            0           0           0
      7.526795  1.447737  2.043718            0           0           0
      7.509987  1.422763  8.029295            0           0           0
      6.257241  0.721203  4.080676            0           0           0
      8.777249  0.712311  4.069361            0           0           0
     -2.487748  4.354834  6.057982            0           0           0
     -1.274668  3.613152  2.033059            0           0           0
     -1.301098  3.621182  8.125056            0           0           0
     -0.008603  2.899851  4.069912            0           0           0
      5.024244  4.360454  6.094521            0           0           0
      3.764922  3.613804  2.032742            0           0           0
      3.729522  3.594964  8.329531            0           0           0
     -3.764966  6.528091  6.075752            0           0           0
     -1.259089  6.507324  6.042717            0           0           0
     -2.509640  5.801439  2.008671            0           0           0
     -2.504768  5.752251  8.099950            0           0           0
      1.281917  6.498533  6.092928            0           0           0
     -0.006663  5.794258  2.000004            0           0           0
     -0.004760  5.768444  8.017293            0           0           0
      3.773789  6.509551  6.078828            0           0           0
      2.503083  5.789092  2.002568            0           0           0
      2.462070  5.759133  8.306240            0           0           0
      1.259453  5.053778  4.043256            0           0           0
      5.014448  5.797983  2.012527            0           0           0
      5.046067  5.808648  8.129385            0           0           0
      6.271379  5.064519  4.042768            0           0           0
     -3.765172  7.961479  2.016913            0           0           0
     -3.787283  7.984890  8.117689            0           0           0
     -1.246538  7.963181  2.021066            0           0           0
     -1.247128  7.961744  8.106992            0           0           0
     -2.515837  7.252772  4.054867            0           0           0
      0.009631  7.225914  4.069573            0           0           0
      3.747565  7.964015  2.041302            0           0           0
      3.788973  8.013452  8.119893            0           0           0
      2.502221  7.236516  4.075548            0           0           0
      5.018012  7.234997  4.071755            0           0           0
      1.209504  0.713040  4.053617            0           0           0
      3.780488  0.677925  4.063513            0           0           0
     -0.000945  4.329788  6.089704            0           0           0
      2.564710  4.368784  6.163674            0           0           0
      1.230982  3.622235  2.029415            0           0           0
      1.241469  3.586523  8.211970            0           0           0
      2.513335  2.878065  4.079383            0           0           0
      6.260244  3.633063  2.002123            0           0           0
      6.331931  3.590757  8.103912            0           0           0
      5.024625  2.886427  4.118223            0           0           0
      7.529969  2.839093  4.109959            0           0           0
     -1.253597  5.108762  4.014883            0           0           0
      3.759753  5.117054  4.022978            0           0           0
      1.251807  7.958501  2.030665            0           0           0
      1.186279  7.962086  8.057776            0           0           0
      5.178264  2.746690  9.243320            0           0           0
     -2.515428  7.225844  9.200529            0           0           0
     -0.068867  2.864118  9.282990            0           0           0
      2.429964  7.433179  9.233093            0           0           0
      3.856308  5.125131  9.311981    -0.882633   -0.460419    0.094728

 Finite differences POTIM=  1.500000000000000E-002

 total charge

# of ion       s       p       d       tot
    1        0.500   0.494   8.329   9.323
    2        0.497   0.482   8.338   9.317
    3        0.509   0.509   8.335   9.352
    4        0.492   0.486   8.341   9.319
    5        0.493   0.487   8.341   9.322
    6        0.503   0.502   8.317   9.321
    7        0.490   0.364   8.322   9.176
    8        0.486   0.488   8.345   9.319
    9        0.501   0.494   8.326   9.322
   10        0.495   0.368   8.311   9.174
   11        0.480   0.370   8.378   9.228
   12        0.503   0.506   8.332   9.342
   13        0.496   0.378   8.308   9.183
   14        0.505   0.526   8.337   9.368
   15        0.493   0.371   8.314   9.179
   16        0.481   0.365   8.385   9.231
   17        0.510   0.503   8.328   9.341
   18        0.498   0.495   8.336   9.329
   19        0.509   0.509   8.320   9.338
   20        0.500   0.377   8.308   9.185
   21        0.500   0.509   8.325   9.334
   22        0.507   0.509   8.312   9.328
   23        0.496   0.482   8.322   9.300
   24        0.500   0.377   8.304   9.182
   25        0.469   0.563   8.323   9.355
   26        0.483   0.471   8.344   9.298
   27        0.493   0.482   8.340   9.315
   28        0.491   0.366   8.322   9.179
   29        0.490   0.504   8.332   9.327
   30        0.498   0.493   8.320   9.312
   31        0.497   0.370   8.313   9.180
   32        0.490   0.382   8.364   9.235
   33        0.492   0.472   8.337   9.301
   34        0.495   0.368   8.313   9.176
   35        0.470   0.563   8.324   9.357
   36        0.501   0.500   8.306   9.306
   37        0.490   0.364   8.322   9.176
   38        0.484   0.483   8.359   9.326
   39        0.499   0.495   8.315   9.308
   40        0.483   0.355   8.328   9.165
   41        0.488   0.497   8.340   9.325
   42        0.493   0.364   8.319   9.175
   43        0.502   0.509   8.328   9.338
   44        0.499   0.497   8.334   9.330
   45        0.501   0.498   8.329   9.328
   46        0.485   0.359   8.328   9.171
   47        0.487   0.477   8.350   9.314
   48        0.494   0.493   8.327   9.314
   49        0.496   0.492   8.336   9.324
   50        0.462   0.480   6.275   7.217
   51        0.464   0.488   6.276   7.228
   52        0.458   0.480   6.263   7.201
   53        0.455   0.464   6.254   7.173
   54        0.442   0.348   6.256   7.047
   55        0.451   0.474   6.290   7.215
   56        0.464   0.485   6.257   7.207
   57        0.442   0.344   6.248   7.034
   58        0.459   0.482   6.304   7.246
   59        0.467   0.493   6.260   7.221
   60        0.463   0.487   6.269   7.219
   61        0.460   0.477   6.272   7.209
   62        0.460   0.474   6.270   7.204
   63        0.439   0.349   6.251   7.039
   64        0.476   0.531   6.319   7.325
   65        1.586   3.331   0.000   4.917
   66        1.583   3.336   0.000   4.919
   67        1.584   3.330   0.000   4.914
   68        1.587   3.332   0.000   4.918
   69        1.587   3.350   0.000   4.937
tot         39.006  45.905 502.227 587.138