 vasp.5.4.4.18Apr17-6-g9f103f2a35 (build Sep 06 2021 19:49:22) complex

 executed on             LinuxIFC date 2021.12.29  16:31:05

 INCAR:
 POTCAR:    PAW_PBE Ni 02Aug2007
 POTCAR:    PAW_PBE Fe 06Sep2000
 POTCAR:    PAW_PBE Ni 02Aug2007
   VRHFIN =Ni:

   TITEL  = PAW_PBE Ni 02Aug2007
   POMASS =   58.690; ZVAL   =   10.000    mass and valenz
   ENMAX  =  269.532; ENMIN  =  202.149 eV

 POTCAR:    PAW_PBE Fe 06Sep2000
   VRHFIN =Fe:  d7 s1

   TITEL  = PAW_PBE Fe 06Sep2000
   POMASS =   55.847; ZVAL   =    8.000    mass and valenz
   ENMAX  =  267.882; ENMIN  =  200.911 eV

 Optimization of the real space projectors (new method)

 maximal supplied QI-value         = 16.25
 optimisation between [QCUT,QGAM] = [ 11.54, 23.24] = [ 37.28,151.24] Ry
 Optimized for a Real-space Cutoff    1.45 Angstroem

   l    n(q)    QCUT    max X(q) W(low)/X(q) W(high)/X(q)  e(spline)
   2      9    11.539    60.317    0.19E-03    0.47E-04    0.16E-06
   2      9    11.539    55.921    0.19E-03    0.48E-04    0.16E-06
   0     10    11.539    51.690    0.80E-04    0.50E-04    0.24E-06
   0     10    11.539    30.015    0.73E-04    0.45E-04    0.22E-06
   1     10    11.539    18.849    0.87E-04    0.16E-03    0.71E-07
   1     10    11.539    14.624    0.73E-04    0.13E-03    0.64E-07
 Optimization of the real space projectors (new method)

 maximal supplied QI-value         = 16.25
 optimisation between [QCUT,QGAM] = [ 11.54, 23.24] = [ 37.28,151.24] Ry
 Optimized for a Real-space Cutoff    1.53 Angstroem

   l    n(q)    QCUT    max X(q) W(low)/X(q) W(high)/X(q)  e(spline)
   2     10    11.539    80.901    0.11E-03    0.14E-03    0.21E-06
   2     10    11.539    75.754    0.11E-03    0.14E-03    0.22E-06
   0     11    11.539    58.752    0.52E-04    0.18E-04    0.33E-06
   0     11    11.539    30.679    0.44E-04    0.16E-04    0.30E-06
   1     10    11.539    17.977    0.53E-04    0.29E-04    0.13E-06
   1     10    11.539    13.559    0.44E-04    0.25E-04    0.11E-06
  PAW_PBE Ni 02Aug2007                  :
  PAW_PBE Fe 06Sep2000                  :

 POSCAR: POSCAR
  positions in direct lattice
  velocities in cartesian coordinates
 exchange correlation table for  LEXCH =        8
   RHO(1)=    0.500       N(1)  =     2000
   RHO(2)=  100.500       N(2)  =     4000

 ion  position               nearest neighbor table
   1  0.999  0.000  0.501-  25 2.47  12 2.49   7 2.49   5 2.49  16 2.50  11 2.51  20 2.51  10 2.52
                             3 2.53   2 2.53  31 2.53  18 2.54
   2  0.002  0.252  0.749-  12 2.48  26 2.50   7 2.50  19 2.51  13 2.51  17 2.51   9 2.51   8 2.52
                             4 2.52   3 2.52  16 2.53   1 2.53
   3  0.250  1.000  0.750-  24 2.49  20 2.50   9 2.51  21 2.51   2 2.52  27 2.52   1 2.53  12 2.53
                            14 2.53  15 2.53   5 2.53  19 2.54
   4  1.000  0.500  0.499-  26 2.49  18 2.49   7 2.49  30 2.49  12 2.50  13 2.50   6 2.50   5 2.52
                             2 2.52  10 2.53  31 2.54  20 2.55
   5  0.998  0.751  0.745-   1 2.49  26 2.50  31 2.50  20 2.50  13 2.51   4 2.52  16 2.52   9 2.53
                             3 2.53  32 2.55  27 2.56  17 2.58
   6  0.250  0.499  0.253-   4 2.50  23 2.51  12 2.51  28 2.51  10 2.51  29 2.52  18 2.52  19 2.53
                            17 2.55  20 2.55  27 2.55  22 2.56
   7  0.756  0.250  0.500-  30 2.48   1 2.49   4 2.49  16 2.50  26 2.50   2 2.50  25 2.50  10 2.52
                            14 2.54  22 2.54  23 2.55  15 2.57
   8  0.755  0.250  0.999-  17 2.49   9 2.49   2 2.52  30 2.52  16 2.52  22 2.54  10 2.54  25 2.54
                            26 2.54  15 2.55  21 2.57  28 2.58
   9  0.999  0.001  0.995-   8 2.49  19 2.51  16 2.51   3 2.51   2 2.51   5 2.53  25 2.53  27 2.54
                            32 2.54  10 2.54  11 2.56  18 2.59
  10  0.005  0.248  0.251-  12 2.46  19 2.47  11 2.49  25 2.50   6 2.51   1 2.52   7 2.52  30 2.52
                            17 2.52   4 2.53   8 2.54   9 2.54
  11  0.247  0.997  0.253-  20 2.49  10 2.49   1 2.51  12 2.52  18 2.52  29 2.52  27 2.53  19 2.55
                             9 2.56  22 2.56  14 2.56  21 2.56
  12  0.243  0.249  0.499-  10 2.46   2 2.48   1 2.49   4 2.50   6 2.51  11 2.52   3 2.53  13 2.54
                            15 2.57  14 2.57  23 2.58  22 2.58
  13  0.247  0.504  0.745-   4 2.50  20 2.50   5 2.51   2 2.51  24 2.52  27 2.52  23 2.53  12 2.54
                            17 2.54  15 2.55  28 2.57  19 2.58
  14  0.503  0.001  0.503-  24 2.49  16 2.49  31 2.51  22 2.52  15 2.52   3 2.53  20 2.53  29 2.53
                             7 2.54  25 2.55  11 2.56  12 2.57
  15  0.498  0.252  0.751-  14 2.52   3 2.53  21 2.53  23 2.53  16 2.53  13 2.55  19 2.55   8 2.55
                            28 2.55  26 2.55  12 2.57   7 2.57
  16  0.751  0.003  0.747-  14 2.49   1 2.50   7 2.50   9 2.51   8 2.52   5 2.52  31 2.52   2 2.53
                            15 2.53  21 2.54  24 2.55  32 2.56
  17  0.999  0.497  0.001-   8 2.49  19 2.49   2 2.51  26 2.52  10 2.52  30 2.52  18 2.54  13 2.54
                            27 2.54   6 2.55  32 2.55   5 2.58
  18  0.999  0.747  0.253-   4 2.49  25 2.52  11 2.52   6 2.52  20 2.52  31 2.53  30 2.53   1 2.54
                            17 2.54  27 2.55  32 2.55   9 2.59
  19  0.245  0.250  0.002-  10 2.47  17 2.49   9 2.51   2 2.51   6 2.53   3 2.54  11 2.55  15 2.55
                            28 2.55  21 2.56  22 2.56  13 2.58
  20  0.249  0.754  0.502-  11 2.49  24 2.49   3 2.50  13 2.50   5 2.50   1 2.51  29 2.51  18 2.52
                            14 2.53   6 2.55   4 2.55  23 2.56
  21  0.499  0.997  0.997-  24 2.50  32 2.51  27 2.51   3 2.51  15 2.53  22 2.53  16 2.54  29 2.55
                            19 2.56  11 2.56   8 2.57  25 2.60
  22  0.504  0.246  0.250-  30 2.51  25 2.51  14 2.52  21 2.53   8 2.54   7 2.54  23 2.54  28 2.54
                            11 2.56  19 2.56   6 2.56  12 2.58
  23  0.501  0.500  0.498-  29 2.50   6 2.51  30 2.51  31 2.51  13 2.53  15 2.53  26 2.54  24 2.54
                            22 2.54   7 2.55  20 2.56  12 2.58
  24  0.496  0.753  0.747-  14 2.49  20 2.49   3 2.49  21 2.50  31 2.52  27 2.52  13 2.52  23 2.54
                            32 2.55  16 2.55  28 2.56  26 2.59
  25  0.757  0.002  0.253-   1 2.47  10 2.50   7 2.50  22 2.51  18 2.52  31 2.52   9 2.53   8 2.54
                            14 2.55  32 2.56  29 2.59  21 2.60
  26  0.755  0.500  0.746-   4 2.49   5 2.50   7 2.50   2 2.50  31 2.51  17 2.52  23 2.54   8 2.54
                            32 2.55  15 2.55  24 2.59  28 2.61
  27  0.250  0.750  0.999-  28 2.50  21 2.51  24 2.52  13 2.52   3 2.52  11 2.53   9 2.54  29 2.54
                            17 2.54  18 2.55   6 2.55   5 2.56
  28  0.497  0.503  0.004-  27 2.50  29 2.51   6 2.51  32 2.51  22 2.54  30 2.55  15 2.55  19 2.55
                            24 2.56  13 2.57   8 2.58  26 2.61
  29  0.498  0.750  0.253-  23 2.50  28 2.51  20 2.51  31 2.51   6 2.52  11 2.52  14 2.53  27 2.54
                            32 2.54  21 2.55  30 2.58  25 2.59
  30  0.752  0.494  0.253-   7 2.48   4 2.49  22 2.51  23 2.51   8 2.52  10 2.52  17 2.52  18 2.53
                            28 2.55  31 2.55  32 2.57  29 2.58
  31  0.748  0.750  0.501-   5 2.50  14 2.51  26 2.51  23 2.51  29 2.51  24 2.52  16 2.52  25 2.52
                            18 2.53   1 2.53   4 2.54  30 2.55
  32  0.748  0.750  1.000-  21 2.51  28 2.51   9 2.54  29 2.54  24 2.55  26 2.55  17 2.55  18 2.55
                             5 2.55  25 2.56  16 2.56  30 2.57

IMPORTANT INFORMATION: All symmetrisations will be switched off!
NOSYMM: (Re-)initialisation of all symmetry stuff for point group C_1.

Automatic generation of k-mesh.
 generate k-points for:    5    5    5
Space group operators:
 irot       det(A)        alpha          n_x          n_y          n_z        tau_x        tau_y        tau_z
    1     1.000000     0.000000     1.000000     0.000000     0.000000     0.000000     0.000000     0.000000

 Subroutine IBZKPT returns following result:

 Found     63 irreducible k-points:

 Following reciprocal coordinates:
            Coordinates               Weight
  0.000000  0.000000  0.000000      1.000000
  0.200000  0.000000  0.000000      2.000000
  0.400000  0.000000  0.000000      2.000000
  0.000000  0.200000  0.000000      2.000000
  0.200000  0.200000  0.000000      2.000000
  0.400000  0.200000  0.000000      2.000000
 -0.400000  0.200000  0.000000      2.000000
 -0.200000  0.200000  0.000000      2.000000
  0.000000  0.400000  0.000000      2.000000
  0.200000  0.400000  0.000000      2.000000
  0.400000  0.400000  0.000000      2.000000
 -0.400000  0.400000  0.000000      2.000000
 -0.200000  0.400000  0.000000      2.000000
  0.000000  0.000000  0.200000      2.000000
  0.200000  0.000000  0.200000      2.000000
  0.400000  0.000000  0.200000      2.000000
 -0.400000  0.000000  0.200000      2.000000
 -0.200000  0.000000  0.200000      2.000000
  0.000000  0.200000  0.200000      2.000000
  0.200000  0.200000  0.200000      2.000000
  0.400000  0.200000  0.200000      2.000000
 -0.400000  0.200000  0.200000      2.000000
 -0.200000  0.200000  0.200000      2.000000
  0.000000  0.400000  0.200000      2.000000
  0.200000  0.400000  0.200000      2.000000
  0.400000  0.400000  0.200000      2.000000
 -0.400000  0.400000  0.200000      2.000000
 -0.200000  0.400000  0.200000      2.000000
  0.000000 -0.400000  0.200000      2.000000
  0.200000 -0.400000  0.200000      2.000000
  0.400000 -0.400000  0.200000      2.000000
 -0.400000 -0.400000  0.200000      2.000000
 -0.200000 -0.400000  0.200000      2.000000
  0.000000 -0.200000  0.200000      2.000000
  0.200000 -0.200000  0.200000      2.000000
  0.400000 -0.200000  0.200000      2.000000
 -0.400000 -0.200000  0.200000      2.000000
 -0.200000 -0.200000  0.200000      2.000000
  0.000000  0.000000  0.400000      2.000000
  0.200000  0.000000  0.400000      2.000000
  0.400000  0.000000  0.400000      2.000000
 -0.400000  0.000000  0.400000      2.000000
 -0.200000  0.000000  0.400000      2.000000
  0.000000  0.200000  0.400000      2.000000
  0.200000  0.200000  0.400000      2.000000
  0.400000  0.200000  0.400000      2.000000
 -0.400000  0.200000  0.400000      2.000000
 -0.200000  0.200000  0.400000      2.000000
  0.000000  0.400000  0.400000      2.000000
  0.200000  0.400000  0.400000      2.000000
  0.400000  0.400000  0.400000      2.000000
 -0.400000  0.400000  0.400000      2.000000
 -0.200000  0.400000  0.400000      2.000000
  0.000000 -0.400000  0.400000      2.000000
  0.200000 -0.400000  0.400000      2.000000
  0.400000 -0.400000  0.400000      2.000000
 -0.400000 -0.400000  0.400000      2.000000
 -0.200000 -0.400000  0.400000      2.000000
  0.000000 -0.200000  0.400000      2.000000
  0.200000 -0.200000  0.400000      2.000000
  0.400000 -0.200000  0.400000      2.000000
 -0.400000 -0.200000  0.400000      2.000000
 -0.200000 -0.200000  0.400000      2.000000

 Following cartesian coordinates:
            Coordinates               Weight
  0.000000  0.000000  0.000000      1.000000
  0.100000  0.000000  0.000000      2.000000
  0.200000  0.000000  0.000000      2.000000
[...]
     33       2.6032      1.00000
     34       2.6142      1.00000
     35       2.6593      1.00000
     36       3.1165      1.00000
     37       3.1493      1.00000
     38       3.1586      1.00000
     39       3.1736      1.00000
     40       3.1889      1.00000
     41       3.2018      1.00000
     42       3.4201      1.00000
     43       3.4294      1.00000
     44       3.4301      1.00000
     45       3.4452      1.00000
     46       3.4537      1.00000
     47       3.4683      1.00000
     48       3.4762      1.00000
     49       3.4949      1.00000
     50       3.4978      1.00000
     51       3.5008      1.00000
     52       3.5085      1.00000
     53       3.5187      1.00000
     54       3.5234      1.00000
     55       3.5284      1.00000
     56       3.5390      1.00000
     57       3.5467      1.00000
     58       3.5480      1.00000
     59       3.5580      1.00000
     60       3.5688      1.00000
[...]
    190      12.8187      0.00000
    191      14.3893      0.00000
    192      14.4391      0.00000
    193      14.4528      0.00000
    194      14.5101      0.00000
    195      14.5294      0.00000
    196      14.5341      0.00000
    197      14.5464      0.00000
    198      14.5523      0.00000
    199      14.5698      0.00000
    200      14.6143      0.00000
    201      14.6286      0.00000
    202      14.6893      0.00000
    203      16.1344      0.00000
    204      16.1471      0.00000

[...]

 spin component 2

[...]

 k-point    63 :      -0.2000   -0.2000    0.4000
  band No.  band energies     occupation
      1      -1.0965      1.00000
      2      -0.4747      1.00000
      3       0.5813      1.00000
      4       0.6798      1.00000
      5       1.1063      1.00000
      6       1.2116      1.00000
      7       1.9416      1.00000
      8       2.1756      1.00000
      9       2.3269      1.00000
     10       2.4114      1.00000
     11       2.7024      1.00000
     12       2.7516      1.00000
     13       2.8153      1.00000
     14       3.0035      1.00000
     15       3.0218      1.00000
     16       3.0423      1.00000
     17       3.1637      1.00000
     18       3.1895      1.00000
     19       3.2521      1.00000
     20       3.2823      1.00000
     21       3.3027      1.00000
     22       3.5784      1.00000
     23       3.6242      1.00000
     24       3.6428      1.00000
     25       3.6623      1.00000
     26       3.7041      1.00000
     27       3.7728      1.00000
     28       3.8043      1.00000
     29       3.8485      1.00000
     30       3.9194      1.00000
     31       3.9927      1.00000
     32       4.0083      1.00000
     33       4.0594      1.00000
     34       4.0740      1.00000
     35       4.1321      1.00000
     36       4.1500      1.00000
     37       4.1839      1.00000
     38       4.2125      1.00000
     39       4.2364      1.00000
     40       4.3038      1.00000
     41       4.3537      1.00000
     42       4.4205      1.00000
     43       4.4497      1.00000
     44       4.4807      1.00000
     45       4.4951      1.00000
     46       4.5266      1.00000
     47       4.6059      1.00000
     48       4.6291      1.00000
     49       4.7156      1.00000
     50       4.7261      1.00000
     51       4.8047      1.00000
     52       4.8393      1.00000
     53       4.8973      1.00000
     54       4.9347      1.00000
     55       4.9797      1.00000
     56       5.0433      1.00000
     57       5.0740      1.00000
     58       5.0981      1.00000
     59       5.1094      1.00000
     60       5.1441      1.00000
[...]
    190      12.3614      0.00000
    191      13.1933      0.00000
    192      13.2896      0.00000
    193      14.1184      0.00000
    194      14.4250      0.00000
    195      14.5578      0.00000
    196      14.6677      0.00000
    197      14.8327      0.00000
    198      15.0239      0.00000
    199      15.0972      0.00000
    200      15.1125      0.00000
    201      16.0566      0.00000
    202      16.1899      0.00000
    203      16.3158      0.00000
    204      16.3641      0.00000

 soft charge-density along one line, spin component           1
         0         1         2         3         4         5         6         7         8         9
 total charge-density along one line

 soft charge-density along one line, spin component           2
         0         1         2         3         4         5         6         7         8         9
 total charge-density along one line

------------------------ aborting loop because EDIFF is reached ----------------------------------------

 total charge

# of ion       s       p       d       tot
    1        0.520   0.530   8.315   9.365
    2        0.515   0.520   8.314   9.349
    3        0.514   0.521   8.316   9.351
    4        0.519   0.528   8.317   9.364
    5        0.515   0.522   8.307   9.343
    6        0.517   0.533   8.307   9.357
    7        0.519   0.530   8.311   9.360
    8        0.517   0.528   8.299   9.344
    9        0.478   0.511   6.219   7.208
   10        0.487   0.524   6.241   7.251
   11        0.489   0.529   6.249   7.267
   12        0.479   0.507   6.208   7.194
   13        0.484   0.514   6.209   7.208
   14        0.486   0.524   6.235   7.245
   15        0.474   0.499   6.214   7.187
   16        0.482   0.511   6.211   7.204
   17        0.479   0.509   6.219   7.207
   18        0.480   0.513   6.223   7.216
   19        0.480   0.511   6.226   7.218
   20        0.482   0.514   6.233   7.228
   21        0.479   0.513   6.217   7.209
   22        0.474   0.503   6.226   7.203
   23        0.482   0.517   6.229   7.228
   24        0.489   0.532   6.243   7.264
   25        0.480   0.513   6.204   7.197
   26        0.473   0.501   6.177   7.151
   27        0.480   0.510   6.222   7.212
   28        0.476   0.507   6.221   7.203
   29        0.485   0.525   6.225   7.235
   30        0.484   0.517   6.217   7.218
   31        0.488   0.523   6.221   7.232
   32        0.480   0.515   6.205   7.200
tot         15.687  16.556 215.779 248.021

 magnetization (x)

[...]

  FORCE on cell =-STRESS in cart. coord.  units (eV):
  Direction    XX          YY          ZZ          XY          YZ          ZX
  Alpha Z  1846.49885  1846.49885  1846.49885
  Ewald   -7175.43523 -7067.74466 -7116.53242     2.18733     0.65674     0.28087
  Hartree  1404.21529  1504.73202  1459.41693     1.33220     1.77121     0.32528
  E(xc)   -1396.42666 -1396.24934 -1396.25080     0.01431    -0.00183    -0.07716
  Local    1297.90639  1093.68937  1185.97480    -2.68087    -3.08808    -0.40912
  n-local  -671.71258  -671.04035  -671.45883    -0.19802    -0.01753    -0.48203
  augment  2342.15303  2338.49550  2340.01689    -0.43373     0.41808    -0.17231
  Kinetic  2368.96185  2364.49969  2364.73094     0.18182     0.20838     0.57795
  Fock        0.00000     0.00000     0.00000     0.00000     0.00000     0.00000
  Total      16.16094    12.88107    12.39638     0.40304    -0.05303     0.04346
  in kB      70.83682    56.46046    54.33596     1.76659    -0.23246     0.19051

 VOLUME and BASIS-vectors are now :
  energy-cutoff  :      520.00
  volume of cell :      365.53
      direct lattice vectors                 reciprocal lattice vectors
     7.150000000  0.000000000  0.000000000     0.139860140  0.000000000  0.000000000
     0.000000000  7.150000000  0.000000000     0.000000000  0.139860140  0.000000000
     0.000000000  0.000000000  7.150000000     0.000000000  0.000000000  0.139860140

  length of vectors
     7.150000000  7.150000000  7.150000000     0.139860140  0.139860140  0.139860140

 FORCES acting on ions
    electron-ion (+dipol)            ewald-force                    non-local-force                 convergence-correction
   -.898E+00 0.423E+02 0.746E+02   0.163E+01 -.426E+02 -.754E+02   -.614E-01 0.113E+00 0.444E+00   -.636E+00 0.107E+00 0.511E+00
   -.245E+02 -.229E+02 -.673E+02   0.250E+02 0.226E+02 0.680E+02   -.228E+00 -.324E-01 -.304E+00   -.386E+00 0.382E+00 -.361E+00
   -.954E+02 0.383E+01 -.455E+02   0.964E+02 -.396E+01 0.459E+02   -.486E+00 0.155E-01 -.147E+00   -.685E+00 0.274E+00 -.262E+00
   -.157E+01 -.449E+02 0.341E+02   0.206E+01 0.452E+02 -.349E+02   0.916E-03 -.179E+00 0.223E+00   -.472E+00 -.108E+00 0.667E+00
   0.265E+02 0.261E+02 -.812E+02   -.260E+02 -.257E+02 0.819E+02   0.362E-01 0.811E-01 -.431E+00   -.517E+00 -.408E+00 -.259E+00
   -.611E+02 -.152E+02 0.467E+02   0.618E+02 0.152E+02 -.472E+02   -.332E+00 -.112E+00 0.254E+00   -.562E+00 -.443E-01 0.336E+00
   0.119E+03 -.339E+01 0.300E+02   -.120E+03 0.312E+01 -.305E+02   0.543E+00 0.331E-01 0.146E+00   0.647E+00 0.256E+00 0.447E+00
   0.768E+02 -.383E+01 -.318E+02   -.778E+02 0.363E+01 0.324E+02   0.377E+00 -.214E-01 -.235E+00   0.533E+00 0.225E+00 -.457E+00
   0.237E+01 0.440E+02 -.675E+02   -.175E+01 -.441E+02 0.684E+02   -.132E+00 0.117E+00 -.721E+00   -.498E+00 -.594E-02 -.416E+00
   -.133E+02 0.160E+02 0.565E+02   0.139E+02 -.163E+02 -.572E+02   -.166E+00 0.288E+00 0.533E+00   -.531E+00 0.219E+00 0.301E+00
   -.538E+02 0.998E+01 0.424E+02   0.544E+02 -.990E+01 -.429E+02   -.238E+00 0.488E-02 0.207E+00   -.432E+00 0.803E-02 0.226E+00
   -.104E+03 -.163E+01 0.244E+02   0.105E+03 0.131E+01 -.249E+02   -.627E+00 -.798E-01 0.228E+00   -.500E+00 0.294E+00 0.556E+00
   -.887E+02 -.231E+01 -.416E+02   0.897E+02 0.238E+01 0.422E+02   -.668E+00 -.611E-01 -.373E+00   -.629E+00 -.192E+00 -.234E+00
   0.429E+01 0.148E+02 0.365E+02   -.488E+01 -.147E+02 -.370E+02   0.483E-01 0.309E+00 0.924E-01   0.492E+00 0.969E-01 0.269E+00
   0.154E+02 -.296E+02 -.186E+02   -.160E+02 0.295E+02 0.189E+02   0.260E+00 -.814E-01 -.224E-01   0.294E+00 0.240E+00 -.201E+00
   0.817E+02 0.469E+02 -.444E+02   -.827E+02 -.472E+02 0.448E+02   0.788E+00 0.414E+00 -.244E+00   0.553E+00 0.920E-01 -.200E+00
   0.800E+00 -.470E+02 -.247E+02   -.424E+00 0.471E+02 0.254E+02   0.747E-02 -.810E-01 -.321E+00   -.387E+00 0.190E-01 -.518E+00
   0.220E+02 -.190E+02 0.645E+02   -.215E+02 0.193E+02 -.653E+02   0.149E+00 -.215E+00 0.588E+00   -.577E+00 -.200E+00 0.226E+00
   -.630E+02 -.212E+01 -.229E+02   0.637E+02 0.183E+01 0.234E+02   -.176E+00 0.338E-01 -.247E+00   -.436E+00 0.267E+00 -.560E+00
   -.770E+02 0.812E+01 0.336E+02   0.777E+02 -.789E+01 -.342E+02   -.651E+00 0.103E-01 0.244E+00   -.512E+00 -.296E+00 0.367E+00
   -.831E+01 0.168E+02 -.388E+02   0.786E+01 -.166E+02 0.393E+02   0.897E-01 0.246E+00 -.160E+00   0.454E+00 0.227E-01 -.293E+00
   0.248E+02 0.181E+02 0.184E+02   -.256E+02 -.183E+02 -.187E+02   0.150E+00 0.148E+00 0.774E-02   0.554E+00 0.149E+00 0.206E+00
   0.158E+01 -.150E+02 -.133E+02   -.204E+01 0.150E+02 0.132E+02   0.190E-02 -.313E+00 -.140E+00   0.378E+00 -.104E+00 0.325E+00
   -.309E+02 0.341E+02 -.230E+02   0.307E+02 -.341E+02 0.232E+02   -.878E-01 0.372E-01 -.490E-01   0.347E+00 -.206E+00 -.136E+00
   0.568E+02 0.539E+02 0.486E+02   -.572E+02 -.542E+02 -.491E+02   0.849E-01 0.427E+00 0.154E+00   0.371E+00 -.302E-01 0.225E+00
   0.963E+02 -.467E+02 -.481E+02   -.972E+02 0.469E+02 0.485E+02   0.455E+00 -.426E+00 -.133E+00   0.570E+00 -.891E-01 -.177E+00
   -.317E+02 0.399E+01 -.315E+02   0.320E+02 -.378E+01 0.321E+02   -.316E+00 0.134E-01 -.236E+00   -.465E+00 -.245E+00 -.397E+00
   -.109E+02 -.157E+02 0.187E+02   0.105E+02 0.156E+02 -.185E+02   0.116E+00 -.260E+00 0.137E+00   0.373E+00 -.509E-01 -.341E+00
   -.277E+02 -.222E+02 0.225E+02   0.272E+02 0.225E+02 -.228E+02   -.401E-02 -.484E-01 0.422E-02   0.528E+00 -.165E+00 0.184E+00
   0.512E+02 -.560E+02 0.453E+02   -.519E+02 0.564E+02 -.458E+02   0.258E+00 -.429E+00 0.181E+00   0.467E+00 0.119E-01 0.274E+00
   0.766E+02 0.445E+01 0.324E+02   -.775E+02 -.434E+01 -.328E+02   0.769E+00 0.300E-01 0.329E+00   0.556E+00 -.168E+00 0.192E+00
   0.364E+02 0.390E+01 -.293E+02   -.369E+02 -.377E+01 0.297E+02   0.317E+00 -.362E-02 -.226E+00   0.501E+00 -.158E+00 -.249E+00
   0.335E+00 -.169E+00 -.346E-01   0.654E-12 -.171E-12 0.103E-12   0.276E+00 -.211E-01 -.215E+00   -.608E+00 0.193E+00 0.248E+00

 POSITION                                       TOTAL-FORCE (eV/Angst)
      7.14178      0.00039      3.58102         0.036473     -0.080193      0.215187
      0.01694      1.80028      5.35542        -0.091129      0.009685     -0.024590
      1.78494      7.14965      5.36038        -0.248301      0.159259     -0.007629
      7.14932      3.57172      3.56458         0.020701      0.028315      0.101850
      7.13493      5.37005      5.32730         0.022590      0.033238      0.040557
      1.78866      3.56825      1.81205        -0.212541     -0.095133      0.069183
      5.40579      1.78974      3.57696        -0.000855      0.009848      0.087772
      5.39643      1.78689      7.14224        -0.027821     -0.003278     -0.106635
      7.14201      0.00630      7.11598        -0.010744     -0.028063     -0.211351
      0.03504      1.77183      1.79336        -0.172279      0.233136      0.150725
      1.76434      7.13097      1.80663        -0.054661      0.096953     -0.116942
      1.73581      1.77929      3.56795         0.158379     -0.101241      0.287159
      1.76531      3.60473      5.33017        -0.255035     -0.184594     -0.033099
      3.59620      0.00788      3.59761        -0.043084      0.478679     -0.111547
      3.56240      1.79883      5.36934        -0.025049      0.052101      0.000491
      5.37213      0.02397      5.34104         0.364901      0.244093     -0.064482
      7.14530      3.55395      0.00580        -0.002815      0.082307     -0.084077
      7.14502      5.33892      1.80692         0.134066     -0.088417      0.056167
      1.75161      1.79015      0.01452         0.151140      0.012843     -0.297187
      1.78247      5.39338      3.58649        -0.513643     -0.051363      0.077793
      3.56627      7.13179      7.13140         0.094422      0.408633      0.053977
      3.60307      1.75642      1.78612        -0.138632      0.054295     -0.017200
      3.58192      3.57671      3.56384        -0.071775     -0.436813      0.041622
      3.54953      5.38679      5.34453         0.115737     -0.163201      0.006220
      5.41315      0.01448      1.81103         0.022145      0.010944     -0.067089
      5.40000      3.57256      5.33245         0.160769     -0.261871      0.033032
      1.78570      5.36098      7.14242        -0.485988     -0.023304     -0.035105
      3.55376      3.59738      0.03018         0.095872     -0.404328     -0.050365
      3.55888      5.36046      1.81226         0.067616      0.070837     -0.053595
      5.37885      3.52891      1.80942         0.076912     -0.010801     -0.037630
      5.34708      5.36587      3.58067         0.500983     -0.021822      0.186892
      5.34537      5.36048      7.14990         0.331644     -0.030745     -0.090102
    total drift:                                0.003589      0.002006     -0.001823

  FREE ENERGIE OF THE ION-ELECTRON SYSTEM (eV)
  free  energy   TOTEN  =      -239.39168665 eV

  energy  without entropy=     -239.39168665  energy(sigma->0) =     -239.39168665

 total charge

[...]

 magnetization (x)

# of ion       s       p       d       tot
    1       -0.029  -0.057   0.713   0.628
    2       -0.028  -0.054   0.709   0.627
    3       -0.029  -0.057   0.709   0.623
    4       -0.029  -0.056   0.703   0.618
    5       -0.030  -0.059   0.737   0.648
    6       -0.031  -0.068   0.747   0.648
    7       -0.030  -0.060   0.729   0.639
    8       -0.032  -0.068   0.761   0.661
    9       -0.011  -0.039   2.553   2.503
   10       -0.010  -0.037   2.495   2.447
   11       -0.018  -0.053   2.453   2.383
   12       -0.010  -0.032   2.586   2.545
   13       -0.014  -0.040   2.547   2.493
   14       -0.015  -0.046   2.506   2.445
   15       -0.013  -0.040   2.566   2.513
   16       -0.010  -0.032   2.583   2.541
   17       -0.011  -0.038   2.553   2.505
   18       -0.013  -0.042   2.536   2.481
   19       -0.013  -0.041   2.521   2.467
   20       -0.009  -0.031   2.533   2.493
   21       -0.013  -0.043   2.582   2.526
   22       -0.011  -0.040   2.553   2.502
   23       -0.015  -0.046   2.519   2.458
   24       -0.015  -0.050   2.489   2.424
   25       -0.012  -0.039   2.600   2.549
   26       -0.008  -0.032   2.673   2.633
   27       -0.012  -0.037   2.553   2.504
   28       -0.012  -0.044   2.570   2.514
   29       -0.015  -0.048   2.553   2.490
   30       -0.013  -0.040   2.541   2.489
   31       -0.015  -0.039   2.542   2.488
   32       -0.017  -0.051   2.581   2.514
tot         -0.541  -1.458  66.997  64.997

 BZINTS: Fermi energy:  6.619684;272.000000 electrons
         Band energy:1170.098417;  BLOECHL correction: -0.089196