 vasp.5.4.4.18Apr17-6-g9f103f2a35 (build Dec 15 2018 21:27:54) gamma-only

 executed on             LinuxIFC date 2022.03.06  07:24:48

 INCAR:
 POTCAR:    PAW_PBE Fe 06Sep2000
 POTCAR:    PAW_PBE O 08Apr2002

 POTCAR:    PAW_PBE Fe 06Sep2000
   VRHFIN =Fe:  d7 s1

   TITEL  = PAW_PBE Fe 06Sep2000
   POMASS =   55.847; ZVAL   =    8.000    mass and valenz
   ENMAX  =  267.882; ENMIN  =  200.911 eV

 POTCAR:    PAW_PBE O 08Apr2002
   VRHFIN =O: s2p4

   TITEL  = PAW_PBE O 08Apr2002
   POMASS =   16.000; ZVAL   =    6.000    mass and valenz
   ENMAX  =  400.000; ENMIN  =  300.000 eV

 Optimization of the real space projectors (new method)

 maximal supplied QI-value         = 16.25
 optimisation between [QCUT,QGAM] = [ 11.54, 23.24] = [ 37.28,151.24] Ry
 Optimized for a Real-space Cutoff    1.53 Angstroem

   l    n(q)    QCUT    max X(q) W(low)/X(q) W(high)/X(q)  e(spline)
   2     10    11.539    80.901    0.11E-03    0.14E-03    0.21E-06
   2     10    11.539    75.754    0.11E-03    0.14E-03    0.22E-06
   0     11    11.539    58.752    0.52E-04    0.18E-04    0.33E-06
   0     11    11.539    30.679    0.44E-04    0.16E-04    0.30E-06
   1     10    11.539    17.977    0.53E-04    0.29E-04    0.13E-06
   1     10    11.539    13.559    0.44E-04    0.25E-04    0.11E-06
 Optimization of the real space projectors (new method)

 maximal supplied QI-value         = 24.76
 optimisation between [QCUT,QGAM] = [ 11.64, 23.27] = [ 37.91,151.63] Ry
 Optimized for a Real-space Cutoff    1.14 Angstroem

   l    n(q)    QCUT    max X(q) W(low)/X(q) W(high)/X(q)  e(spline)
   0      8    11.635    20.381    0.10E-03    0.33E-03    0.24E-06
   0      8    11.635    15.268    0.11E-03    0.35E-03    0.26E-06
   1      7    11.635     5.964    0.24E-03    0.31E-03    0.30E-06
   1      7    11.635     5.382    0.22E-03    0.25E-03    0.26E-06
  PAW_PBE Fe 06Sep2000                  :
  PAW_PBE O 08Apr2002                   :

 POSCAR: POSCAR
  positions in direct lattice
  velocities in cartesian coordinates
 exchange correlation table for  LEXCH =        8
   RHO(1)=    0.500       N(1)  =     2000
   RHO(2)=  100.500       N(2)  =     4000

 VTST: version 3.2, (02/03/18)

 CHAIN: initializing optimizer

 OPT: Using VASP Dynamics algorithm
 CHAIN: Read ICHAIN            0

 POSCAR: POSCAR
  positions in direct lattice
  velocities in cartesian coordinates

 ion  position               nearest neighbor table
   1  0.087  0.163  0.095-   5 2.48  13 2.48  17 2.48  49 2.48  31 2.48   3 2.48  29 2.87  53 2.87
                            15 2.87  19 2.87
   2  0.089  0.162  0.285-  32 2.38   4 2.40   3 2.43  31 2.45  18 2.48  14 2.48  50 2.49   6 2.49
                            54 2.82  19 2.83  16 2.83  15 2.84  20 2.84  30 2.88
   3  0.212  0.038  0.191-  54 2.39   2 2.43  15 2.48   7 2.48  51 2.48  19 2.48  53 2.48   1 2.48
                            50 2.83   6 2.85  31 2.87  55 2.87  49 2.87   5 2.87
   4  0.214  0.034  0.376-  54 2.39   2 2.40  52 2.42  16 2.44  20 2.52   8 2.53  56 2.75  50 2.77
                             6 2.82  32 2.85
   5  0.337  0.163  0.095-   1 2.48   9 2.48  21 2.48  53 2.48   7 2.48  19 2.48  17 2.87  57 2.87
                             3 2.87  23 2.87
   6  0.339  0.164  0.285-   7 2.44   8 2.44  19 2.45  20 2.47  10 2.48  22 2.49  54 2.49   2 2.49
                            23 2.81   4 2.82   3 2.85  58 2.86  18 2.87  24 2.90
   7  0.462  0.038  0.191-   6 2.44  58 2.47  11 2.48   3 2.48  55 2.48  23 2.48  57 2.48   5 2.48
                            54 2.81  10 2.86  19 2.87  59 2.87  53 2.87   9 2.87
   8  0.465  0.045  0.380-  65 1.86  12 2.44   6 2.44  58 2.46  56 2.47  24 2.51   4 2.53  10 2.78
                            20 2.84  60 2.93  54 2.94
   9  0.587  0.163  0.095-   5 2.48  13 2.48  25 2.48  57 2.48  11 2.48  23 2.48  21 2.87  61 2.87
                             7 2.87  27 2.87
  10  0.590  0.161  0.286-  12 2.44  11 2.45  23 2.47  26 2.48   6 2.48  14 2.48  58 2.49  24 2.51
                             8 2.78  27 2.84  62 2.85   7 2.86  28 2.86  22 2.92
  11  0.712  0.038  0.191-  62 2.43  10 2.45  15 2.48   7 2.48  59 2.48  27 2.48  61 2.48   9 2.48
                            14 2.83  58 2.87  23 2.87  63 2.87  57 2.87  13 2.87
  12  0.716  0.027  0.378-  66 1.87  62 2.39  60 2.41   8 2.44  10 2.44  16 2.53  28 2.56  58 2.76
                            64 2.80  14 2.87  24 3.03
  13  0.837  0.163  0.095-   1 2.48   9 2.48  29 2.48  61 2.48  15 2.48  27 2.48  49 2.87  25 2.87
                            11 2.87  31 2.87
  14  0.839  0.161  0.285-  15 2.42  27 2.45  28 2.46  16 2.47  30 2.48  10 2.48   2 2.48  62 2.48
                            32 2.81  31 2.82  11 2.83  50 2.86  12 2.87  26 2.89
  15  0.962  0.038  0.191-  14 2.42  50 2.46   3 2.48  11 2.48  31 2.48  63 2.48  13 2.48  49 2.48
                            62 2.83   2 2.84  27 2.87  51 2.87   1 2.87  61 2.87
  16  0.969  0.033  0.379-  66 1.85  50 2.41   4 2.44  64 2.45  14 2.47  32 2.49  12 2.53   2 2.83
                            62 2.86  28 2.87  52 2.88
  17  0.087  0.413  0.095-  21 2.48  29 2.48   1 2.48  33 2.48  19 2.48  47 2.48  45 2.87   5 2.87
                            31 2.87  35 2.87
  18  0.087  0.412  0.285-  48 2.44  19 2.45  47 2.45  20 2.45  34 2.48   2 2.48  22 2.48  30 2.49
                            36 2.73  32 2.77  31 2.83  35 2.85  46 2.87   6 2.87
  19  0.212  0.288  0.191-   6 2.45  18 2.45  23 2.48  31 2.48   3 2.48  35 2.48   5 2.48  17 2.48
                             2 2.83  22 2.84   7 2.87  47 2.87  21 2.87   1 2.87
  20  0.212  0.288  0.380-  65 1.86  36 2.43  32 2.44  18 2.45   6 2.47  24 2.51   4 2.52   8 2.84
                             2 2.84  22 2.85  48 2.85
  21  0.337  0.413  0.095-  17 2.48  25 2.48   5 2.48  37 2.48  35 2.48  23 2.48   9 2.87  33 2.87
                            19 2.87  39 2.87
  22  0.335  0.416  0.285-  35 2.43  36 2.44  24 2.44  38 2.46  23 2.47  18 2.48  26 2.48   6 2.49
                            34 2.83  39 2.83  19 2.84  20 2.85  10 2.92  40 2.97
  23  0.462  0.288  0.191-  22 2.47  10 2.47  19 2.48  27 2.48   7 2.48  39 2.48  21 2.48   9 2.48
                             6 2.81  26 2.84  35 2.87  11 2.87   5 2.87  25 2.87
  24  0.461  0.299  0.380-  69 1.87  65 1.89  22 2.44   8 2.51  10 2.51  20 2.51  28 2.52  40 2.57
                            26 2.77  36 2.88   6 2.90  12 3.03
  25  0.587  0.413  0.095-  21 2.48  29 2.48   9 2.48  41 2.48  39 2.48  27 2.48  13 2.87  37 2.87
                            23 2.87  43 2.87
  26  0.586  0.412  0.287-  42 2.46  39 2.47  27 2.47  10 2.48  22 2.48  30 2.49  28 2.49  40 2.64
                            44 2.75  24 2.77  23 2.84  38 2.87  43 2.87  14 2.89
  27  0.712  0.288  0.191-  14 2.45  26 2.47  23 2.48  31 2.48  11 2.48  43 2.48  25 2.48  13 2.48
                            30 2.83  10 2.84  39 2.87  15 2.87   9 2.87  29 2.87
  28  0.719  0.284  0.381-  69 1.87  66 1.91  44 2.43  14 2.46  32 2.47  26 2.49  24 2.52  12 2.56
                            30 2.83  10 2.86  16 2.87
  29  0.837  0.413  0.095-  17 2.48  25 2.48  13 2.48  45 2.48  43 2.48  31 2.48   1 2.87  41 2.87
                            27 2.87  47 2.87
  30  0.837  0.411  0.285-  32 2.42  44 2.45  31 2.45  43 2.45  14 2.48  46 2.48  26 2.49  18 2.49
                            48 2.81  27 2.83  28 2.83  42 2.85  47 2.85   2 2.88
  31  0.962  0.288  0.191-  30 2.45   2 2.45  27 2.48  19 2.48  15 2.48  47 2.48   1 2.48  29 2.48
                            14 2.82  18 2.83  43 2.87   3 2.87  17 2.87  13 2.87
  32  0.968  0.284  0.376-   2 2.38  30 2.42  20 2.44  48 2.45  28 2.47  16 2.49  18 2.77  14 2.81
                             4 2.85  44 2.93
  33  0.087  0.663  0.095-  37 2.48  45 2.48  17 2.48  49 2.48  35 2.48  63 2.48  61 2.87  21 2.87
                            47 2.87  51 2.87
  34  0.088  0.661  0.284-  64 2.36  36 2.38  35 2.42  63 2.43  18 2.48  38 2.48  46 2.49  50 2.49
                            47 2.81  22 2.83  51 2.83  62 2.87  48 2.89  52 2.95
  35  0.212  0.538  0.191-  34 2.42  22 2.43  39 2.48  47 2.48  19 2.48  51 2.48  21 2.48  33 2.48
                            38 2.79  18 2.85  23 2.87  63 2.87  37 2.87  17 2.87
  36  0.199  0.537  0.377-  68 1.83  34 2.38  48 2.38  20 2.43  22 2.44  40 2.57  52 2.58  18 2.73
                            64 2.78  24 2.88  38 2.92
  37  0.337  0.663  0.095-  33 2.48  41 2.48  21 2.48  53 2.48  51 2.48  39 2.48  25 2.87  49 2.87
                            35 2.87  55 2.87
  38  0.337  0.662  0.282-  51 2.40  39 2.40  22 2.46  52 2.47  40 2.47  34 2.48  42 2.48  54 2.50
                            35 2.79  55 2.80  56 2.84  50 2.85  26 2.87  36 2.92
  39  0.462  0.538  0.191-  38 2.40  26 2.47  35 2.48  43 2.48  23 2.48  55 2.48  37 2.48  25 2.48
                            42 2.81  22 2.83  51 2.87  27 2.87  21 2.87  41 2.87
  40  0.448  0.561  0.384-  69 1.90  68 1.91  56 2.41  44 2.47  38 2.47  24 2.57  52 2.57  36 2.57
                            26 2.64  42 2.85  22 2.97
  41  0.587  0.663  0.095-  37 2.48  45 2.48  25 2.48  57 2.48  55 2.48  43 2.48  29 2.87  53 2.87
                            39 2.87  59 2.87
  42  0.587  0.659  0.285-  56 2.41  44 2.42  43 2.43  26 2.46  55 2.46  38 2.48  46 2.48  58 2.51
                            39 2.81  40 2.85  30 2.85  59 2.86  60 2.86  54 2.91
  43  0.712  0.538  0.191-  42 2.43  30 2.45  39 2.48  47 2.48  27 2.48  59 2.48  41 2.48  29 2.48
                            46 2.81  55 2.87  31 2.87  25 2.87  45 2.87  26 2.87
  44  0.705  0.533  0.379-  67 1.88  42 2.42  28 2.43  30 2.45  40 2.47  69 2.50  60 2.54  48 2.54
                            26 2.75  46 2.90  32 2.93  56 2.94
  45  0.837  0.663  0.095-  33 2.48  41 2.48  29 2.48  61 2.48  59 2.48  47 2.48  17 2.87  57 2.87
                            43 2.87  63 2.87
  46  0.837  0.662  0.284-  47 2.43  59 2.43  60 2.44  48 2.47  42 2.48  62 2.48  30 2.48  34 2.49
                            64 2.78  43 2.81  63 2.83  58 2.87  18 2.87  44 2.90
  47  0.962  0.538  0.191-  46 2.43  18 2.45  43 2.48  35 2.48  31 2.48  63 2.48  17 2.48  45 2.48
                            34 2.81  30 2.85  59 2.87  19 2.87  33 2.87  29 2.87
  48  0.960  0.533  0.379-  67 1.88  36 2.38  18 2.44  32 2.45  46 2.47  44 2.54  64 2.54  30 2.81
                            60 2.85  20 2.85  34 2.89
  49  0.087  0.913  0.095-  53 2.48  61 2.48   1 2.48  33 2.48  15 2.48  51 2.48  37 2.87  13 2.87
                             3 2.87  63 2.87
  50  0.089  0.911  0.285-  16 2.41  51 2.44  54 2.45  15 2.46   2 2.49  34 2.49  62 2.50  52 2.50
                            64 2.73   4 2.77   3 2.83  63 2.84  38 2.85  14 2.86
  51  0.212  0.788  0.191-  38 2.40  50 2.44  55 2.48  63 2.48   3 2.48  35 2.48  49 2.48  37 2.48
                            54 2.80  34 2.83  39 2.87  15 2.87  53 2.87  33 2.87
  52  0.225  0.787  0.380-  68 1.84  56 2.37   4 2.42  38 2.47  50 2.50  40 2.57  36 2.58  64 2.59
                            54 2.81  16 2.88  34 2.95
  53  0.337  0.913  0.095-  49 2.48  57 2.48   5 2.48  37 2.48  55 2.48   3 2.48  41 2.87   1 2.87
                             7 2.87  51 2.87
[...]
      8.85307      5.03291      4.02685         0.164721      0.116245     -0.429570
      8.76288      4.98729      7.98129         0.528425      0.438497     -0.441169
     10.50799      6.20311      2.00000         0.007688      0.021807      1.146953
     10.49664      6.19358      5.99247         0.000450      0.041919     -0.128943
     11.33544      5.03291      4.02685         0.085511     -0.034158     -0.343255
     11.29898      4.98904      7.99801        -0.035277      0.033047     -0.187026
      3.88832      8.54352      2.00000        -0.004298      0.018911      1.087692
      3.90166      8.52980      6.00988        -0.378917     -0.357888      0.023004
      4.71578      7.37332      4.02685         0.003166      0.119029     -0.432545
      4.84137      7.36545      8.01563         0.196933     -0.121254     -0.458236
      6.37069      8.54352      2.00000        -0.013239     -0.011271      0.993607
      6.35183      8.56182      5.96352        -0.154146      0.223837     -0.214783
      7.19815      7.37332      4.02685         0.075426     -0.078640     -0.249844
      7.20201      7.47823      7.86141         0.454146      0.692792     -0.801645
      8.85307      8.54352      2.00000         0.013722      0.018572      1.046173
      8.84329      8.53334      6.03824        -0.434257     -0.234880     -0.263844
      9.68053      7.37332      4.02685        -0.048402      0.112894     -0.320687
      9.70115      7.34329      7.99760         0.241371      0.022672     -0.283928
     11.33544      8.54352      2.00000         0.008999     -0.043989      0.981727
     11.33067      8.53347      5.98755        -0.252651      0.135598      0.052160
     12.16290      7.37332      4.02685         0.016068      0.013331     -0.382285
     12.18527      7.37043      7.85860         0.341137      0.117680     -0.864232
      4.32550      1.87099      9.09591         0.210345      0.204249     -1.141083
      8.44571      1.09558      9.06170        -0.495344     -0.307643     -1.158881
     10.02874      5.84301      9.08119        -0.491122     -0.223817     -1.087631
      4.83669      5.89698      9.13148        -0.153899     -0.182558     -0.745573
      6.88159      3.69240      8.99494        -0.426855     -0.152084     -1.008815
    total drift:                                0.009123      0.000821     -0.004815

  FREE ENERGIE OF THE ION-ELECTRON SYSTEM (eV)
  free  energy   TOTEN  =      -520.50663708 eV

  energy  without entropy=     -515.33494765  energy(sigma->0) =     -517.92079236

 d Force = 0.3492644E-01[ 0.303E-01, 0.396E-01]  d Energy = 0.3497232E-01-0.459E-04
 d Force =-0.5108974E+02[-0.510E+02,-0.511E+02]  d Ewald  =-0.5109093E+02 0.120E-02

 stress matrix after NEB project (eV)
   -144.70924     10.53007      1.35357
     10.53007   -152.65335      1.02096
      1.35357      1.02096    -80.52344
  FORCES: max atom, RMS     1.105912    0.133136
  FORCE total and by dimension    1.105912    1.008815
  Stress total and by dimension  225.732914  152.653351
 Finite differences progress:
  Degree of freedom:   3/  3
  Displacement:        2/  2
  Total:               6/  6

 SECOND DERIVATIVES (NOT SYMMETRIZED)
              69X         69Y         69Z
 69X    -8.036058    2.623469   -1.226902
 69Y     2.554524   -9.228234   -1.686836
 69Z    -1.149198   -1.770011  -10.359979

 Eigenvectors and eigenvalues of the dynamical matrix

   1 f  =   13.422173 THz    84.334002 2PiTHz  447.715495 cm-1    55.509667 meV
             X         Y         Z           dx          dy          dz
      1.405944  1.522303  1.999996            0           0           0
      1.422042  1.512703  6.004417            0           0           0
      2.233403  0.352100  4.026849            0           0           0
      2.234740  0.315639  7.917281            0           0           0
      3.888319  1.522303  1.999996            0           0           0
      3.911536  1.531930  6.004614            0           0           0
      4.715778  0.352100  4.026849            0           0           0
      4.763727  0.422092  8.008394            0           0           0
      6.370694  1.522303  1.999996            0           0           0
      6.389115  1.510262  6.029549            0           0           0
      7.198153  0.352100  4.026849            0           0           0
      7.199418  0.251102  7.960729            0           0           0
      8.853069  1.522303  1.999996            0           0           0
      8.868021  1.507391  5.997462            0           0           0
      9.680528  0.352100  4.026849            0           0           0
      9.728496  0.307013  7.980167            0           0           0
      2.233403  3.862708  1.999996            0           0           0
      2.224302  3.855727  6.013764            0           0           0
      3.060861  2.692506  4.026849            0           0           0
      3.058588  2.696176  8.005921            0           0           0
      4.715778  3.862708  1.999996            0           0           0
      4.701846  3.889873  6.011093            0           0           0
      5.543236  2.692506  4.026849            0           0           0
      5.565655  2.797693  8.019530            0           0           0
      7.198153  3.862708  1.999996            0           0           0
      7.182797  3.856153  6.039614            0           0           0
      8.025611  2.692506  4.026849            0           0           0
      8.081547  2.654470  8.028764            0           0           0
      9.680528  3.862708  1.999996            0           0           0
      9.668180  3.850923  6.012451            0           0           0
     10.507986  2.692506  4.026849            0           0           0
     10.549649  2.661374  7.923592            0           0           0
      3.060861  6.203114  1.999996            0           0           0
      3.056848  6.186584  5.983932            0           0           0
      3.888319  5.032911  4.026849            0           0           0
      3.751163  5.027700  7.945009            0           0           0
      5.543236  6.203114  1.999996            0           0           0
      5.534753  6.198477  5.949612            0           0           0
      6.370694  5.032911  4.026849            0           0           0
      6.310496  5.255572  8.100364            0           0           0
      8.025611  6.203114  1.999996            0           0           0
      8.013114  6.167448  6.010773            0           0           0
      8.853069  5.032911  4.026849            0           0           0
      8.762883  4.987287  7.981289            0           0           0
     10.507986  6.203114  1.999996            0           0           0
     10.496644  6.193580  5.992467            0           0           0
     11.335444  5.032911  4.026849            0           0           0
     11.298975  4.989044  7.998007            0           0           0
      3.888319  8.543520  1.999996            0           0           0
      3.901663  8.529800  6.009880            0           0           0
      4.715778  7.373317  4.026849            0           0           0
      4.841369  7.365451  8.015633            0           0           0
      6.370694  8.543520  1.999996            0           0           0
      6.351832  8.561819  5.963518            0           0           0
      7.198153  7.373317  4.026849            0           0           0
      7.202011  7.478227  7.861409            0           0           0
      8.853069  8.543520  1.999996            0           0           0
      8.843289  8.533340  6.038244            0           0           0
      9.680528  7.373317  4.026849            0           0           0
      9.701146  7.343292  7.997601            0           0           0
     11.335444  8.543520  1.999996            0           0           0
     11.330673  8.533473  5.987554            0           0           0
     12.162903  7.373317  4.026849            0           0           0
     12.185271  7.370430  7.858602            0           0           0
      4.325496  1.870985  9.095914            0           0           0
      8.445713  1.095582  9.061699            0           0           0
     10.028741  5.843007  9.081193            0           0           0
      4.836690  5.896984  9.131485            0           0           0
      6.881594  3.692399  9.009944     0.301609   -0.723006   -0.621526

[...]

   3 f  =    8.902110 THz    55.933605 2PiTHz  296.942411 cm-1    36.816180 meV
             X         Y         Z           dx          dy          dz
      1.405944  1.522303  1.999996            0           0           0
      1.422042  1.512703  6.004417            0           0           0
      2.233403  0.352100  4.026849            0           0           0
      2.234740  0.315639  7.917281            0           0           0
      3.888319  1.522303  1.999996            0           0           0
      3.911536  1.531930  6.004614            0           0           0
      4.715778  0.352100  4.026849            0           0           0
      4.763727  0.422092  8.008394            0           0           0
      6.370694  1.522303  1.999996            0           0           0
      6.389115  1.510262  6.029549            0           0           0
      7.198153  0.352100  4.026849            0           0           0
      7.199418  0.251102  7.960729            0           0           0
      8.853069  1.522303  1.999996            0           0           0
      8.868021  1.507391  5.997462            0           0           0
      9.680528  0.352100  4.026849            0           0           0
      9.728496  0.307013  7.980167            0           0           0
      2.233403  3.862708  1.999996            0           0           0
      2.224302  3.855727  6.013764            0           0           0
      3.060861  2.692506  4.026849            0           0           0
      3.058588  2.696176  8.005921            0           0           0
      4.715778  3.862708  1.999996            0           0           0
      4.701846  3.889873  6.011093            0           0           0
      5.543236  2.692506  4.026849            0           0           0
      5.565655  2.797693  8.019530            0           0           0
      7.198153  3.862708  1.999996            0           0           0
      7.182797  3.856153  6.039614            0           0           0
      8.025611  2.692506  4.026849            0           0           0
      8.081547  2.654470  8.028764            0           0           0
      9.680528  3.862708  1.999996            0           0           0
      9.668180  3.850923  6.012451            0           0           0
     10.507986  2.692506  4.026849            0           0           0
     10.549649  2.661374  7.923592            0           0           0
      3.060861  6.203114  1.999996            0           0           0
      3.056848  6.186584  5.983932            0           0           0
      3.888319  5.032911  4.026849            0           0           0
      3.751163  5.027700  7.945009            0           0           0
      5.543236  6.203114  1.999996            0           0           0
      5.534753  6.198477  5.949612            0           0           0
      6.370694  5.032911  4.026849            0           0           0
      6.310496  5.255572  8.100364            0           0           0
      8.025611  6.203114  1.999996            0           0           0
      8.013114  6.167448  6.010773            0           0           0
      8.853069  5.032911  4.026849            0           0           0
      8.762883  4.987287  7.981289            0           0           0
     10.507986  6.203114  1.999996            0           0           0
     10.496644  6.193580  5.992467            0           0           0
     11.335444  5.032911  4.026849            0           0           0
     11.298975  4.989044  7.998007            0           0           0
      3.888319  8.543520  1.999996            0           0           0
      3.901663  8.529800  6.009880            0           0           0
      4.715778  7.373317  4.026849            0           0           0
      4.841369  7.365451  8.015633            0           0           0
      6.370694  8.543520  1.999996            0           0           0
      6.351832  8.561819  5.963518            0           0           0
      7.198153  7.373317  4.026849            0           0           0
      7.202011  7.478227  7.861409            0           0           0
      8.853069  8.543520  1.999996            0           0           0
      8.843289  8.533340  6.038244            0           0           0
      9.680528  7.373317  4.026849            0           0           0
      9.701146  7.343292  7.997601            0           0           0
     11.335444  8.543520  1.999996            0           0           0
     11.330673  8.533473  5.987554            0           0           0
     12.162903  7.373317  4.026849            0           0           0
     12.185271  7.370430  7.858602            0           0           0
      4.325496  1.870985  9.095914            0           0           0
      8.445713  1.095582  9.061699            0           0           0
     10.028741  5.843007  9.081193            0           0           0
      4.836690  5.896984  9.131485            0           0           0
      6.881594  3.692399  9.009944    -0.705007   -0.607984    0.365132

 Finite differences POTIM=  1.500000000000000E-002

 total charge

# of ion       s       p       d       tot
    1        0.454   0.355   6.232   7.042
    2        0.478   0.518   6.269   7.264
    3        0.471   0.498   6.260   7.229
    4        0.464   0.389   6.263   7.116
    5        0.454   0.354   6.235   7.043
    6        0.468   0.499   6.264   7.232
    7        0.465   0.493   6.248   7.206
    8        0.457   0.478   6.285   7.220
    9        0.455   0.355   6.233   7.043
   10        0.466   0.500   6.246   7.212
   11        0.467   0.493   6.253   7.214
   12        0.464   0.482   6.297   7.243
   13        0.455   0.353   6.235   7.044
   14        0.472   0.498   6.269   7.240
   15        0.466   0.495   6.252   7.213
   16        0.465   0.491   6.287   7.243
   17        0.455   0.356   6.232   7.042
   18        0.477   0.512   6.271   7.260
   19        0.466   0.493   6.250   7.209
   20        0.460   0.485   6.287   7.233
   21        0.454   0.355   6.233   7.042
   22        0.473   0.509   6.253   7.235
   23        0.464   0.490   6.248   7.201
   24        0.439   0.533   6.333   7.305
   25        0.455   0.355   6.233   7.043
   26        0.464   0.484   6.262   7.210
   27        0.464   0.492   6.247   7.203
   28        0.450   0.555   6.332   7.337
   29        0.454   0.355   6.233   7.042
   30        0.471   0.509   6.257   7.238
   31        0.466   0.493   6.252   7.212
   32        0.463   0.383   6.271   7.116
   33        0.455   0.355   6.232   7.042
   34        0.483   0.523   6.272   7.279
   35        0.469   0.498   6.258   7.226
   36        0.477   0.505   6.310   7.292
   37        0.455   0.354   6.235   7.044
   38        0.477   0.512   6.267   7.255
   39        0.468   0.497   6.253   7.218
   40        0.439   0.536   6.321   7.297
   41        0.454   0.355   6.233   7.042
   42        0.475   0.510   6.261   7.246
   43        0.467   0.493   6.252   7.212
   44        0.436   0.463   6.305   7.204
   45        0.455   0.354   6.234   7.043
   46        0.469   0.501   6.266   7.236
   47        0.467   0.495   6.252   7.213
   48        0.461   0.483   6.280   7.225
   49        0.455   0.355   6.232   7.042
   50        0.474   0.508   6.269   7.252
   51        0.470   0.500   6.258   7.228
   52        0.465   0.498   6.295   7.257
   53        0.454   0.356   6.232   7.042
   54        0.486   0.529   6.279   7.294
   55        0.467   0.494   6.255   7.217
   56        0.485   0.415   6.272   7.173
   57        0.455   0.355   6.233   7.043
   58        0.472   0.503   6.265   7.239
   59        0.465   0.493   6.249   7.208
   60        0.457   0.475   6.277   7.210
   61        0.455   0.355   6.232   7.042
   62        0.480   0.522   6.269   7.271
   63        0.468   0.496   6.258   7.222
   64        0.458   0.371   6.283   7.112
   65        1.583   3.338   0.000   4.921
   66        1.583   3.339   0.000   4.922
   67        1.582   3.339   0.000   4.921
   68        1.584   3.345   0.000   4.930
   69        1.581   3.344   0.000   4.925
tot         37.586  45.978 400.711 484.275