 vasp.5.4.4.18Apr17-6-g9f103f2a35 (build Dec 15 2018 21:27:54) gamma-only

 executed on             LinuxIFC date 2022.02.23  10:49:41

 INCAR:
 POTCAR:    PAW_PBE Ni 02Aug2007
 POTCAR:    PAW_PBE O 08Apr2002
 POTCAR:    PAW_PBE H 15Jun2001

 POTCAR:    PAW_PBE Ni 02Aug2007
   VRHFIN =Ni:

   TITEL  = PAW_PBE Ni 02Aug2007
   POMASS =   58.690; ZVAL   =   10.000    mass and valenz
   ENMAX  =  269.532; ENMIN  =  202.149 eV

 POTCAR:    PAW_PBE O 08Apr2002
   VRHFIN =O: s2p4

   TITEL  = PAW_PBE O 08Apr2002
   POMASS =   16.000; ZVAL   =    6.000    mass and valenz
   ENMAX  =  400.000; ENMIN  =  300.000 eV

 POTCAR:    PAW_PBE H 15Jun2001
   VRHFIN =H: ultrasoft test

   TITEL  = PAW_PBE H 15Jun2001
   POMASS =    1.000; ZVAL   =    1.000    mass and valenz
   ENMAX  =  250.000; ENMIN  =  200.000 eV

 Optimization of the real space projectors (new method)

 maximal supplied QI-value         = 16.25
 optimisation between [QCUT,QGAM] = [ 11.54, 23.24] = [ 37.28,151.24] Ry
 Optimized for a Real-space Cutoff    1.45 Angstroem

   l    n(q)    QCUT    max X(q) W(low)/X(q) W(high)/X(q)  e(spline)
   2      9    11.539    60.317    0.19E-03    0.47E-04    0.16E-06
   2      9    11.539    55.921    0.19E-03    0.48E-04    0.16E-06
   0     10    11.539    51.690    0.80E-04    0.50E-04    0.24E-06
   0     10    11.539    30.015    0.73E-04    0.45E-04    0.22E-06
   1     10    11.539    18.849    0.87E-04    0.16E-03    0.71E-07
   1     10    11.539    14.624    0.73E-04    0.13E-03    0.64E-07
 Optimization of the real space projectors (new method)

[...]

   l    n(q)    QCUT    max X(q) W(low)/X(q) W(high)/X(q)  e(spline)
   0      8    11.635    20.381    0.10E-03    0.33E-03    0.24E-06
   0      8    11.635    15.268    0.11E-03    0.35E-03    0.26E-06
   1      7    11.635     5.964    0.24E-03    0.31E-03    0.30E-06
   1      7    11.635     5.382    0.22E-03    0.25E-03    0.26E-06
 Optimization of the real space projectors (new method)

 maximal supplied QI-value         = 34.20
 optimisation between [QCUT,QGAM] = [ 11.63, 23.26] = [ 37.87,151.49] Ry
 Optimized for a Real-space Cutoff    1.21 Angstroem

   l    n(q)    QCUT    max X(q) W(low)/X(q) W(high)/X(q)  e(spline)
   0      8    11.629    19.460    0.17E-03    0.34E-03    0.21E-06
   0      8    11.629    12.209    0.16E-03    0.33E-03    0.21E-06
   1      8    11.629     4.655    0.18E-03    0.16E-03    0.26E-06
  PAW_PBE Ni 02Aug2007                  :
  PAW_PBE O 08Apr2002                   :
  PAW_PBE H 15Jun2001                   :

 POSCAR: POSCAR
  positions in direct lattice
  velocities in cartesian coordinates
 exchange correlation table for  LEXCH =        8
   RHO(1)=    0.500       N(1)  =     2000
   RHO(2)=  100.500       N(2)  =     4000

 VTST: version 3.2, (02/03/18)

 CHAIN: initializing optimizer

 OPT: Using VASP Dynamics algorithm
 CHAIN: Read ICHAIN            0

 POSCAR: POSCAR
  positions in direct lattice
  velocities in cartesian coordinates

 ion  position               nearest neighbor table
   1  0.113  0.226  0.095-  15 2.49  19 2.49   3 2.49   5 2.49  13 2.49  17 2.49  21 2.49  49 2.49
                            61 2.49
   2  0.108  0.228  0.382-  65 1.82  14 2.40  18 2.43  20 2.45  62 2.48  22 2.51  24 2.52   6 2.52
                             4 2.52  50 2.57
   3  0.196  0.142  0.191-   4 2.44   8 2.45  24 2.46   5 2.49  49 2.49   1 2.49   7 2.49  15 2.49
                            19 2.49  23 2.49  51 2.49  63 2.49
   4  0.029  0.059  0.285-  62 2.43  15 2.44   3 2.44  63 2.44   8 2.49  24 2.49  64 2.49  16 2.49
                            20 2.49  52 2.50  50 2.52   2 2.52
   5  0.363  0.226  0.095-   3 2.49  23 2.49   7 2.49   9 2.49   1 2.49  21 2.49  25 2.49  49 2.49
                            53 2.49
   6  0.359  0.224  0.387-  65 1.86  69 1.96  50 2.52   2 2.52  22 2.52  54 2.52  10 2.53  26 2.55
                            24 2.56   8 2.56  28 2.56
   7  0.446  0.142  0.191-  12 2.45   8 2.46  28 2.49   9 2.49  53 2.49   5 2.49  11 2.49   3 2.49
                            23 2.49  51 2.49  27 2.49  55 2.49
   8  0.280  0.060  0.286-  54 2.41   3 2.45   7 2.46  51 2.46  24 2.47  28 2.49   4 2.49  52 2.50
                            12 2.50  56 2.51  50 2.52   6 2.56
   9  0.613  0.226  0.095-   7 2.49  27 2.49  11 2.49  13 2.49   5 2.49  25 2.49  29 2.49  53 2.49
                            57 2.49
  10  0.613  0.225  0.383-  68 1.89  69 1.93  28 2.49  12 2.51  32 2.51  54 2.52  30 2.52  58 2.52
                            14 2.52   6 2.53  26 2.53
  11  0.696  0.142  0.191-  16 2.44  12 2.45  32 2.45  13 2.49  57 2.49   9 2.49  15 2.49   7 2.49
                            27 2.49  55 2.49  31 2.49  59 2.49
  12  0.530  0.060  0.285-  54 2.42  11 2.45   7 2.45  55 2.46  32 2.47  16 2.49  60 2.49  28 2.49
                             8 2.50  56 2.50  10 2.51  58 2.53
  13  0.863  0.226  0.095-  11 2.49  31 2.49  15 2.49   9 2.49   1 2.49  29 2.49  17 2.49  57 2.49
                            61 2.49
  14  0.868  0.228  0.383-  68 1.84   2 2.40  18 2.43  20 2.46  62 2.49  30 2.50  10 2.52  32 2.53
                            16 2.53  58 2.56
  15  0.946  0.142  0.191-   4 2.44  16 2.45  20 2.48   1 2.49  61 2.49  13 2.49   3 2.49  11 2.49
                            31 2.49  59 2.49  19 2.49  63 2.49
  16  0.779  0.059  0.285-  62 2.43  11 2.44  15 2.45  59 2.45  32 2.49  12 2.49  60 2.49  20 2.49
                             4 2.49  64 2.49  58 2.53  14 2.53
  17  0.113  0.476  0.095-  31 2.49  35 2.49  19 2.49  21 2.49  29 2.49  13 2.49  33 2.49   1 2.49
                            37 2.49
  18  0.111  0.473  0.383-  67 1.84   2 2.43  14 2.43  20 2.47  30 2.47  22 2.48  36 2.53  40 2.53
                            34 2.54  38 2.54
  19  0.196  0.392  0.191-  40 2.44  24 2.47  20 2.48  21 2.49   1 2.49  17 2.49  31 2.49  23 2.49
                            15 2.49  35 2.49  39 2.49   3 2.49
  20  0.029  0.309  0.287-   2 2.45  14 2.46  18 2.47  31 2.47  19 2.48  15 2.48  36 2.49  40 2.49
                            16 2.49  32 2.49   4 2.49  24 2.50
  21  0.363  0.476  0.095-  19 2.49  39 2.49  23 2.49  25 2.49  17 2.49   5 2.49  37 2.49   1 2.49
                            41 2.49
  22  0.362  0.477  0.377-  40 2.41  44 2.41  24 2.41  18 2.48  38 2.48   2 2.51  42 2.51   6 2.52
                            26 2.52
  23  0.446  0.392  0.191-  24 2.46  44 2.46  28 2.48  25 2.49   5 2.49  21 2.49  19 2.49  27 2.49
                             7 2.49  39 2.49  43 2.49   3 2.49
  24  0.280  0.308  0.286-  22 2.41   3 2.46  23 2.46  19 2.47   8 2.47  28 2.48   4 2.49  20 2.50
                            44 2.50  40 2.50   2 2.52   6 2.56
  25  0.613  0.476  0.095-  23 2.49  43 2.49  27 2.49  29 2.49  21 2.49   9 2.49  41 2.49   5 2.49
                            45 2.49
  26  0.615  0.479  0.387-  66 1.86  69 1.96  46 2.52  42 2.52  22 2.52  30 2.52  10 2.53   6 2.55
                            44 2.56  48 2.56  28 2.56
  27  0.696  0.392  0.191-  32 2.45  48 2.46  28 2.49  29 2.49   9 2.49  25 2.49  23 2.49  31 2.49
                            11 2.49  43 2.49  47 2.49   7 2.49
  28  0.529  0.310  0.287-  44 2.48  24 2.48  23 2.48  48 2.49   8 2.49  10 2.49  27 2.49   7 2.49
                            32 2.49  12 2.49   6 2.56  26 2.56
  29  0.863  0.476  0.095-  27 2.49  47 2.49  31 2.49  25 2.49  17 2.49  13 2.49  33 2.49  45 2.49
                             9 2.49
  30  0.866  0.477  0.377-  36 2.40  48 2.41  32 2.42  18 2.47  34 2.47  14 2.50  46 2.51  10 2.52
                            26 2.52
  31  0.946  0.392  0.191-  36 2.44  32 2.46  20 2.47  17 2.49  13 2.49  29 2.49  27 2.49  19 2.49
                            15 2.49  35 2.49  11 2.49  47 2.49
  32  0.778  0.308  0.285-  30 2.42  11 2.45  27 2.45  31 2.46  12 2.47  16 2.49  20 2.49  28 2.49
                            48 2.50  36 2.50  10 2.51  14 2.53
  33  0.113  0.726  0.095-  47 2.49  51 2.49  35 2.49  37 2.49  45 2.49  29 2.49  49 2.49  17 2.49
                            53 2.49
  34  0.111  0.727  0.383-  67 1.84  46 2.43  50 2.43  52 2.47  54 2.47  30 2.47  56 2.53  36 2.53
                            18 2.54  38 2.54
  35  0.196  0.642  0.191-  36 2.44  56 2.44  40 2.44  37 2.49  17 2.49  33 2.49  47 2.49  39 2.49
                            31 2.49  51 2.49  55 2.49  19 2.49
  36  0.030  0.559  0.284-  30 2.40  35 2.44  47 2.44  31 2.44  52 2.49  20 2.49  56 2.49  40 2.49
                            32 2.50  48 2.51  34 2.53  18 2.53
  37  0.363  0.726  0.095-  35 2.49  55 2.49  39 2.49  41 2.49  33 2.49  21 2.49  53 2.49  17 2.49
                            57 2.49
  38  0.366  0.727  0.383-  67 1.84  42 2.43  58 2.43  60 2.47  54 2.47  22 2.48  56 2.53  40 2.53
                            34 2.54  18 2.54
  39  0.446  0.642  0.191-  40 2.44  44 2.47  60 2.48  41 2.49  21 2.49  37 2.49  35 2.49  43 2.49
                            23 2.49  55 2.49  59 2.49  19 2.49
  40  0.279  0.559  0.285-  22 2.41  35 2.44  39 2.44  19 2.44  36 2.49  56 2.49  20 2.49  60 2.49
                            44 2.50  24 2.50  18 2.53  38 2.53
  41  0.613  0.726  0.095-  39 2.49  59 2.49  43 2.49  45 2.49  37 2.49  25 2.49  57 2.49  21 2.49
                            61 2.49
  42  0.611  0.730  0.382-  66 1.82  58 2.40  38 2.43  60 2.45  62 2.48  22 2.51  44 2.52  26 2.52
                            64 2.52  46 2.57
  43  0.696  0.642  0.191-  64 2.44  48 2.45  44 2.46  45 2.49  25 2.49  41 2.49  39 2.49  47 2.49
                            27 2.49  59 2.49  63 2.49  23 2.49
  44  0.531  0.559  0.286-  22 2.41  43 2.46  23 2.46  39 2.47  48 2.47  28 2.48  64 2.49  60 2.50
                            24 2.50  40 2.50  42 2.52  26 2.56
  45  0.863  0.726  0.095-  43 2.49  63 2.49  47 2.49  41 2.49  33 2.49  29 2.49  49 2.49  61 2.49
                            25 2.49
  46  0.869  0.730  0.382-  66 1.82  50 2.39  34 2.43  52 2.46  62 2.49  30 2.51  26 2.52  48 2.52
                            64 2.52  42 2.57
  47  0.946  0.642  0.191-  36 2.44  48 2.46  52 2.47  33 2.49  29 2.49  45 2.49  43 2.49  35 2.49
                            31 2.49  51 2.49  27 2.49  63 2.49
  48  0.778  0.559  0.286-  30 2.41  43 2.45  27 2.46  47 2.46  44 2.47  28 2.49  64 2.49  52 2.50
                            32 2.50  36 2.51  46 2.52  26 2.56
  49  0.113  0.976  0.095-  63 2.49   3 2.49  51 2.49  61 2.49  53 2.49   1 2.49   5 2.49  33 2.49
                            45 2.49
  50  0.109  0.970  0.382-  65 1.82  46 2.39  34 2.43  52 2.46  62 2.49  54 2.51   6 2.52   8 2.52
                             4 2.52   2 2.57
  51  0.196  0.892  0.191-  56 2.44   8 2.46  52 2.47  53 2.49  33 2.49  49 2.49  55 2.49  63 2.49
                            35 2.49  47 2.49   3 2.49   7 2.49
  52  0.030  0.809  0.286-  46 2.46  50 2.46  51 2.47  47 2.47  63 2.47  34 2.47  56 2.49  36 2.49
                             4 2.50  64 2.50   8 2.50  48 2.50
  53  0.363  0.976  0.095-  51 2.49   7 2.49  55 2.49  49 2.49  57 2.49   5 2.49   9 2.49  33 2.49
                            37 2.49
  54  0.361  0.973  0.377-  56 2.40   8 2.41  12 2.42  38 2.47  34 2.47  58 2.50  50 2.51  10 2.52
                             6 2.52
[...]
      3.73776      8.42196      2.00000         0.001547     -0.001380     -0.087819
      3.73179      8.42553      7.96914         0.014464     -0.008415      0.153015
      4.98369      7.70262      4.03457         0.046344     -0.026719     -0.089071
      3.73700      6.98350      6.00835        -0.001237      0.020014     -0.025949
      1.12447      1.15919      9.20355         0.065716      0.026104     -0.302336
      3.73733      5.68509      9.20333         0.011282     -0.069604     -0.302104
     -1.24563      5.54490      9.19029        -0.016919      0.011472     -0.371768
      6.29919      1.18871      9.21749        -0.064658      0.037070     -0.341135
      3.79108      2.63634      9.42461        -0.066747      0.038501     -0.205516
      4.09017      2.46097     10.90088         0.147175     -0.081688      0.141880
      4.94726      1.97494     10.80025        -0.079449      0.041276      0.081628
    total drift:                               -0.003197      0.002253      0.033075

  FREE ENERGIE OF THE ION-ELECTRON SYSTEM (eV)
  free  energy   TOTEN  =      -392.66523419 eV

  energy  without entropy=     -388.62868083  energy(sigma->0) =     -390.64695751

 d Force = 0.8801626E-04[-0.245E-02, 0.262E-02]  d Energy = 0.8325553E-04 0.476E-05
 d Force =-0.1003025E+02[-0.100E+02,-0.100E+02]  d Ewald  =-0.1003012E+02-0.137E-03

 stress matrix after NEB project (eV)
    -47.13302      0.22501      0.16797
      0.22501    -46.88874     -0.10359
      0.16797     -0.10359     -2.44101
  FORCES: max atom, RMS     0.220144    0.039596
  FORCE total and by dimension    0.333641    0.205516
  Stress total and by dimension   66.529793   47.133024
 Finite differences progress:
  Degree of freedom:   9/  9
  Displacement:        2/  2
  Total:              18/ 18

 SECOND DERIVATIVES (NOT SYMMETRIZED)
              69X         69Y         69Z         70X         70Y         70Z         71X         71Y         71Z
 69X    -9.972270    0.927163   -1.559355    3.355059   -1.114528   -1.131429    0.410333   -0.095862    3.237475
 69Y     0.857093   -8.942811    0.797583   -1.105249    2.023404    0.637717   -0.093912    0.314191   -1.836413
 69Z    -1.535392    0.840306  -10.088015    1.730900   -0.986907    3.711998    0.618995   -0.360623    1.293569
 70X     3.339150   -1.101115    1.688582  -35.302969   19.658603    3.922860   32.065216  -18.021053   -5.822130
 70Y    -1.100491    2.015645   -1.003311   19.556668  -11.722806   -2.264407  -17.977080   10.475819    3.286597
 70Z    -1.138817    0.626815    3.793703    3.988033   -2.266006  -12.346378   -3.357505    1.893458    4.131122
 71X     0.418129   -0.093999    0.598891   32.060596  -18.046028   -3.351240  -32.195793   17.988204    2.437382
 71Y    -0.108520    0.312263   -0.352356  -17.991661   10.461543    1.886051   17.934729  -10.674529   -1.356440
 71Z     3.246201   -1.845599    1.311486   -5.818378    3.271455    4.095987    2.421253   -1.363725   -5.637448

 Eigenvectors and eigenvalues of the dynamical matrix

   1 f  =  105.213096 THz   661.073377 2PiTHz 3509.531001 cm-1   435.126544 meV
             X         Y         Z           dx          dy          dz
     -0.000005  1.947959  2.000002            0           0           0
     -0.053671  1.964752  8.071058            0           0           0
      1.245927  1.228619  4.034573            0           0           0
     -0.000516  0.509905  6.008379            0           0           0
      2.491840  1.947959  2.000002            0           0           0
      2.463588  1.931815  8.163253            0           0           0
      3.737772  1.228619  4.034573            0           0           0
      2.485955  0.519532  6.027031            0           0           0
      4.983685  1.947959  2.000002            0           0           0
      4.990148  1.944307  8.078625            0           0           0
      6.229617  1.228619  4.034573            0           0           0
      4.987100  0.518067  6.019099            0           0           0
      7.475530  1.947959  2.000002            0           0           0
      7.512075  1.965891  8.077475            0           0           0
      8.721462  1.228619  4.034573            0           0           0
      7.472360  0.511187  6.012239            0           0           0
     -1.245927  4.105960  2.000002            0           0           0
     -1.247629  4.079914  8.075879            0           0           0
      0.000005  3.386620  4.034573            0           0           0
     -1.249254  2.669437  6.047474            0           0           0
      1.245918  4.105960  2.000002            0           0           0
      1.226403  4.117352  7.956278            0           0           0
      2.491850  3.386620  4.034573            0           0           0
      1.251488  2.658485  6.032571            0           0           0
      3.737763  4.105960  2.000002            0           0           0
      3.737754  4.138918  8.163499            0           0           0
      4.983695  3.386620  4.034573            0           0           0
      3.729360  2.672275  6.061979            0           0           0
      6.229608  4.105960  2.000002            0           0           0
      6.251120  4.119820  7.946720            0           0           0
      7.475540  3.386620  4.034573            0           0           0
      6.223800  2.660028  6.019075            0           0           0
     -2.491850  6.263961  2.000002            0           0           0
     -2.513717  6.276717  8.073823            0           0           0
     -1.245918  5.544621  4.034573            0           0           0
     -2.490481  4.826201  6.003321            0           0           0
     -0.000005  6.263961  2.000002            0           0           0
      0.021984  6.278823  8.075732            0           0           0
      1.245927  5.544621  4.034573            0           0           0
     -0.000803  4.825822  6.005452            0           0           0
      2.491840  6.263961  2.000002            0           0           0
      2.450456  6.302375  8.070964            0           0           0
      3.737772  5.544621  4.034573            0           0           0
      2.502265  4.824948  6.032607            0           0           0
      4.983685  6.263961  2.000002            0           0           0
      5.022554  6.300716  8.068223            0           0           0
      6.229617  5.544621  4.034573            0           0           0
      4.971963  4.825363  6.027060            0           0           0
     -3.737772  8.421962  2.000002            0           0           0
     -3.750008  8.370197  8.068361            0           0           0
     -2.491840  7.702622  4.034573            0           0           0
     -3.734380  6.981415  6.042310            0           0           0
     -1.245927  8.421962  2.000002            0           0           0
     -1.247101  8.396598  7.946803            0           0           0
      0.000005  7.702622  4.034573            0           0           0
     -1.245988  6.981772  6.003330            0           0           0
      1.245918  8.421962  2.000002            0           0           0
      1.248783  8.381651  8.077585            0           0           0
      2.491850  7.702622  4.034573            0           0           0
      1.242429  6.985261  6.047443            0           0           0
      3.737763  8.421962  2.000002            0           0           0
      3.731790  8.425528  7.969140            0           0           0
      4.983695  7.702622  4.034573            0           0           0
      3.736996  6.983503  6.008347            0           0           0
      1.124467  1.159189  9.203552            0           0           0
      3.737334  5.685092  9.203332            0           0           0
     -1.245631  5.544902  9.190292            0           0           0
      6.299190  1.188709  9.217488            0           0           0
      3.791083  2.636341  9.424613     0.000421   -0.000220   -0.002693
      4.090175  2.460975 10.900884    -0.212375    0.120290    0.024284
      4.947261  1.974941 10.815253     0.840688   -0.476314   -0.078734

[...]

   9 f  =    1.717123 THz    10.789000 2PiTHz   57.277048 cm-1     7.101451 meV
             X         Y         Z           dx          dy          dz
     -0.000005  1.947959  2.000002            0           0           0
     -0.053671  1.964752  8.071058            0           0           0
      1.245927  1.228619  4.034573            0           0           0
     -0.000516  0.509905  6.008379            0           0           0
      2.491840  1.947959  2.000002            0           0           0
      2.463588  1.931815  8.163253            0           0           0
      3.737772  1.228619  4.034573            0           0           0
      2.485955  0.519532  6.027031            0           0           0
      4.983685  1.947959  2.000002            0           0           0
      4.990148  1.944307  8.078625            0           0           0
      6.229617  1.228619  4.034573            0           0           0
      4.987100  0.518067  6.019099            0           0           0
      7.475530  1.947959  2.000002            0           0           0
      7.512075  1.965891  8.077475            0           0           0
      8.721462  1.228619  4.034573            0           0           0
      7.472360  0.511187  6.012239            0           0           0
     -1.245927  4.105960  2.000002            0           0           0
     -1.247629  4.079914  8.075879            0           0           0
      0.000005  3.386620  4.034573            0           0           0
     -1.249254  2.669437  6.047474            0           0           0
      1.245918  4.105960  2.000002            0           0           0
      1.226403  4.117352  7.956278            0           0           0
      2.491850  3.386620  4.034573            0           0           0
      1.251488  2.658485  6.032571            0           0           0
      3.737763  4.105960  2.000002            0           0           0
      3.737754  4.138918  8.163499            0           0           0
      4.983695  3.386620  4.034573            0           0           0
      3.729360  2.672275  6.061979            0           0           0
      6.229608  4.105960  2.000002            0           0           0
      6.251120  4.119820  7.946720            0           0           0
      7.475540  3.386620  4.034573            0           0           0
      6.223800  2.660028  6.019075            0           0           0
     -2.491850  6.263961  2.000002            0           0           0
     -2.513717  6.276717  8.073823            0           0           0
     -1.245918  5.544621  4.034573            0           0           0
     -2.490481  4.826201  6.003321            0           0           0
     -0.000005  6.263961  2.000002            0           0           0
      0.021984  6.278823  8.075732            0           0           0
      1.245927  5.544621  4.034573            0           0           0
     -0.000803  4.825822  6.005452            0           0           0
      2.491840  6.263961  2.000002            0           0           0
      2.450456  6.302375  8.070964            0           0           0
      3.737772  5.544621  4.034573            0           0           0
      2.502265  4.824948  6.032607            0           0           0
      4.983685  6.263961  2.000002            0           0           0
      5.022554  6.300716  8.068223            0           0           0
      6.229617  5.544621  4.034573            0           0           0
      4.971963  4.825363  6.027060            0           0           0
     -3.737772  8.421962  2.000002            0           0           0
     -3.750008  8.370197  8.068361            0           0           0
     -2.491840  7.702622  4.034573            0           0           0
     -3.734380  6.981415  6.042310            0           0           0
     -1.245927  8.421962  2.000002            0           0           0
     -1.247101  8.396598  7.946803            0           0           0
      0.000005  7.702622  4.034573            0           0           0
     -1.245988  6.981772  6.003330            0           0           0
      1.245918  8.421962  2.000002            0           0           0
      1.248783  8.381651  8.077585            0           0           0
      2.491850  7.702622  4.034573            0           0           0
      1.242429  6.985261  6.047443            0           0           0
      3.737763  8.421962  2.000002            0           0           0
      3.731790  8.425528  7.969140            0           0           0
      4.983695  7.702622  4.034573            0           0           0
      3.736996  6.983503  6.008347            0           0           0
      1.124467  1.159189  9.203552            0           0           0
      3.737334  5.685092  9.203332            0           0           0
     -1.245631  5.544902  9.190292            0           0           0
      6.299190  1.188709  9.217488            0           0           0
      3.791083  2.636341  9.424613    -0.080909   -0.165077    0.012121
      4.090175  2.460975 10.900884    -0.436015   -0.866500    0.000683
      4.947261  1.974941 10.815253    -0.067782   -0.143180   -0.005468

 Finite differences POTIM=  1.500000000000000E-002

 total charge

# of ion       s       p       d       tot
    1        0.484   0.358   8.331   9.173
    2        0.495   0.514   8.340   9.350
    3        0.492   0.488   8.339   9.319
    4        0.493   0.487   8.349   9.329
    5        0.484   0.358   8.331   9.173
    6        0.449   0.520   8.346   9.315
    7        0.488   0.484   8.341   9.312
    8        0.492   0.485   8.344   9.322
    9        0.484   0.358   8.331   9.173
   10        0.460   0.554   8.343   9.357
   11        0.493   0.490   8.340   9.322
   12        0.495   0.491   8.344   9.331
   13        0.484   0.358   8.331   9.173
   14        0.491   0.506   8.338   9.336
   15        0.490   0.487   8.342   9.319
   16        0.493   0.486   8.349   9.329
   17        0.485   0.357   8.332   9.173
   18        0.490   0.501   8.337   9.328
   19        0.488   0.486   8.342   9.316
   20        0.501   0.500   8.333   9.333
   21        0.484   0.357   8.332   9.172
   22        0.477   0.359   8.390   9.226
   23        0.488   0.483   8.341   9.311
   24        0.492   0.486   8.343   9.321
   25        0.484   0.358   8.331   9.173
   26        0.449   0.520   8.346   9.315
   27        0.488   0.484   8.341   9.312
   28        0.490   0.480   8.332   9.302
   29        0.483   0.357   8.332   9.172
   30        0.478   0.361   8.392   9.231
   31        0.489   0.487   8.343   9.319
   32        0.496   0.491   8.344   9.331
   33        0.484   0.358   8.332   9.173
   34        0.490   0.501   8.337   9.328
   35        0.493   0.493   8.340   9.326
   36        0.495   0.490   8.349   9.334
   37        0.485   0.357   8.332   9.173
   38        0.490   0.501   8.337   9.328
   39        0.488   0.486   8.342   9.316
   40        0.494   0.488   8.349   9.331
   41        0.484   0.358   8.331   9.173
   42        0.496   0.514   8.340   9.350
   43        0.492   0.488   8.339   9.319
   44        0.492   0.486   8.343   9.321
   45        0.483   0.358   8.331   9.173
   46        0.496   0.514   8.341   9.352
   47        0.489   0.487   8.343   9.318
   48        0.492   0.485   8.344   9.322
   49        0.483   0.358   8.331   9.173
   50        0.496   0.514   8.341   9.351
   51        0.489   0.487   8.342   9.318
   52        0.501   0.501   8.333   9.336
   53        0.483   0.357   8.332   9.172
   54        0.478   0.361   8.392   9.231
   55        0.489   0.487   8.343   9.319
   56        0.495   0.490   8.349   9.334
   57        0.484   0.358   8.331   9.173
   58        0.491   0.506   8.338   9.336
   59        0.490   0.487   8.342   9.319
   60        0.501   0.500   8.333   9.333
   61        0.482   0.357   8.333   9.172
   62        0.471   0.361   8.390   9.222
   63        0.490   0.488   8.342   9.320
   64        0.493   0.487   8.350   9.329
   65        1.584   3.331   0.000   4.915
   66        1.584   3.331   0.000   4.915
   67        1.583   3.330   0.000   4.913
   68        1.579   3.339   0.000   4.918
   69        1.589   3.293   0.000   4.882
   70        1.596   3.348   0.000   4.944
   71        0.603   0.112   0.000   0.715
tot         41.308  49.037 533.901 624.246