 vasp.5.4.4.18Apr17-6-g9f103f2a35 (build Sep 06 2021 19:49:22) complex

 executed on             LinuxIFC date 2022.01.05  08:36:34

 INCAR:
 POTCAR:    PAW_PBE Fe 06Sep2000
 POTCAR:    PAW_PBE Ni 02Aug2007

 POTCAR:    PAW_PBE Fe 06Sep2000
   VRHFIN =Fe:  d7 s1

   TITEL  = PAW_PBE Fe 06Sep2000
   POMASS =   55.847; ZVAL   =    8.000    mass and valenz
   ENMAX  =  267.882; ENMIN  =  200.911 eV

 POTCAR:    PAW_PBE Ni 02Aug2007
   VRHFIN =Ni:

   TITEL  = PAW_PBE Ni 02Aug2007
   POMASS =   58.690; ZVAL   =   10.000    mass and valenz
   ENMAX  =  269.532; ENMIN  =  202.149 eV

 Optimization of the real space projectors (new method)

 maximal supplied QI-value         = 16.25
 optimisation between [QCUT,QGAM] = [ 11.54, 23.24] = [ 37.28,151.24] Ry
 Optimized for a Real-space Cutoff    1.53 Angstroem

   l    n(q)    QCUT    max X(q) W(low)/X(q) W(high)/X(q)  e(spline)
   2     10    11.539    80.901    0.11E-03    0.14E-03    0.21E-06
   2     10    11.539    75.754    0.11E-03    0.14E-03    0.22E-06
   0     11    11.539    58.752    0.52E-04    0.18E-04    0.33E-06
   0     11    11.539    30.679    0.44E-04    0.16E-04    0.30E-06
   1     10    11.539    17.977    0.53E-04    0.29E-04    0.13E-06
   1     10    11.539    13.559    0.44E-04    0.25E-04    0.11E-06
 Optimization of the real space projectors (new method)

 maximal supplied QI-value         = 16.25
 optimisation between [QCUT,QGAM] = [ 11.54, 23.24] = [ 37.28,151.24] Ry
 Optimized for a Real-space Cutoff    1.45 Angstroem

   l    n(q)    QCUT    max X(q) W(low)/X(q) W(high)/X(q)  e(spline)
   2      9    11.539    60.317    0.19E-03    0.47E-04    0.16E-06
   2      9    11.539    55.921    0.19E-03    0.48E-04    0.16E-06
   0     10    11.539    51.690    0.80E-04    0.50E-04    0.24E-06
   0     10    11.539    30.015    0.73E-04    0.45E-04    0.22E-06
   1     10    11.539    18.849    0.87E-04    0.16E-03    0.71E-07
   1     10    11.539    14.624    0.73E-04    0.13E-03    0.64E-07
  PAW_PBE Fe 06Sep2000                  :
  PAW_PBE Ni 02Aug2007                  :

 POSCAR: POSCAR
  positions in direct lattice
  velocities in cartesian coordinates
 exchange correlation table for  LEXCH =        8
   RHO(1)=    0.500       N(1)  =     2000
   RHO(2)=  100.500       N(2)  =     4000

 ion  position               nearest neighbor table
   1  0.002  0.999  0.097-   9 2.45  29 2.50  49 2.51  64 2.51  44 2.53   7 2.53  51 2.54  38 2.55
                             5 2.60
   2  0.999  0.996  0.373-  48 2.35  11 2.41  57 2.43  30 2.51  50 2.52  39 2.53  52 2.56   8 2.56
                             6 2.57
   3  0.499  0.996  0.096-   5 2.47  62 2.50  34 2.52  31 2.52  49 2.53  45 2.55  55 2.55  12 2.56
                            53 2.58
   4  0.505  0.997  0.374-  15 2.35  63 2.38   6 2.43  13 2.46  35 2.49  56 2.53  50 2.60  32 2.60
                            54 2.61
   5  0.743  0.996  0.094-   3 2.47  34 2.47  62 2.52  38 2.53  55 2.54  64 2.58  14 2.58  51 2.59
                             1 2.60
   6  0.742  0.991  0.373-  47 2.31  15 2.38  35 2.42  57 2.43   4 2.43  39 2.48   2 2.57  56 2.60
                            52 2.64
   7  0.249  0.253  0.097-  22 2.43   9 2.44  51 2.49  18 2.52  20 2.53   1 2.53  53 2.54  10 2.55
                            49 2.58
   8  0.250  0.252  0.372-  26 2.37  59 2.38  11 2.38  52 2.50  19 2.53  54 2.53  21 2.55  50 2.56
                             2 2.56
   9  0.089  0.161  0.191-  11 2.41  10 2.41   7 2.44   1 2.45  44 2.47  59 2.49  57 2.50  51 2.52
                            64 2.54  22 2.55  58 2.62  14 2.68
  10  0.330  0.166  0.195-  11 2.37  26 2.37  13 2.40   9 2.41  22 2.48  45 2.48  44 2.49   7 2.55
                            12 2.57  49 2.58  53 2.59  25 2.59
  11  0.168  0.086  0.284-  10 2.37   8 2.38   9 2.41   2 2.41  44 2.43  26 2.48  50 2.49  59 2.51
                            57 2.54  48 2.55  46 2.56  13 2.56
  12  0.583  0.166  0.194-  13 2.36  15 2.42  28 2.42  14 2.45  27 2.50  62 2.52  45 2.54  55 2.55
                             3 2.56  10 2.57  53 2.58  25 2.58
  13  0.423  0.089  0.284-  12 2.36  10 2.40  26 2.41  45 2.44  28 2.46   4 2.46  54 2.48  15 2.48
                            50 2.51  63 2.53  11 2.56  46 2.64
  14  0.827  0.167  0.193-  15 2.42  60 2.44  57 2.44  12 2.45  62 2.51  55 2.51  27 2.53  58 2.56
                            51 2.56   5 2.58  64 2.59   9 2.68
  15  0.666  0.084  0.286-   4 2.35   6 2.38  12 2.42  14 2.42  56 2.44  62 2.48  13 2.48  57 2.53
                            60 2.53  63 2.54  28 2.56  47 2.58
  16  0.003  0.511  0.095-  31 2.44  29 2.45  23 2.48  33 2.51  58 2.57  18 2.58  27 2.59  55 2.60
                            51 2.63
  17  0.007  0.511  0.374-  37 2.33  43 2.37  32 2.37  30 2.44  60 2.45  19 2.53  24 2.55  52 2.61
                            56 2.61
  18  0.256  0.506  0.097-  36 2.40  31 2.45  34 2.47  22 2.47  20 2.48   7 2.52  58 2.53  51 2.58
                            16 2.58
  19  0.253  0.503  0.373-  61 2.39  37 2.39  59 2.41  32 2.48  21 2.52  35 2.53   8 2.53  17 2.53
                            52 2.53
  20  0.500  0.503  0.098-  22 2.41  40 2.43  34 2.48  18 2.48  38 2.50  25 2.53   7 2.53  53 2.54
                            23 2.58
  21  0.503  0.505  0.374-  42 2.38  61 2.40  26 2.45  39 2.46  35 2.47  24 2.51  19 2.52  54 2.55
                             8 2.55
  22  0.339  0.416  0.189-  20 2.41   7 2.43  40 2.46  18 2.47  25 2.48  10 2.48  59 2.49  61 2.49
                            26 2.52  36 2.53   9 2.55  58 2.60
  23  0.757  0.508  0.096-  29 2.40  41 2.46  16 2.48  27 2.48  38 2.48  25 2.56  55 2.57  20 2.58
                            53 2.60
  24  0.750  0.504  0.373-  42 2.34  43 2.38  28 2.39  39 2.49  30 2.50  21 2.51  54 2.54  56 2.55
                            17 2.55
  25  0.586  0.422  0.194-  28 2.38  42 2.42  26 2.43  40 2.45  41 2.46  27 2.46  22 2.48  20 2.53
                            23 2.56  53 2.58  12 2.58  10 2.59
  26  0.418  0.326  0.285-  10 2.37   8 2.37  13 2.41  28 2.42  54 2.43  25 2.43  21 2.45  11 2.48
                            22 2.52  59 2.56  42 2.60  61 2.61
  27  0.827  0.417  0.192-  28 2.43  41 2.45  60 2.46  25 2.46  23 2.48  12 2.50  43 2.51  55 2.51
                            14 2.53  58 2.59  16 2.59  33 2.60
  28  0.662  0.336  0.284-  25 2.38  24 2.39  26 2.42  12 2.42  27 2.43  13 2.46  54 2.47  56 2.49
                            42 2.50  60 2.55  15 2.56  43 2.59
  29  0.992  0.747  0.096-  23 2.40  16 2.45  38 2.48  41 2.50   1 2.50  33 2.54  44 2.56  49 2.57
                            31 2.63
  30  0.000  0.749  0.375-  48 2.34  43 2.35  46 2.35  17 2.44  32 2.48  24 2.50   2 2.51  50 2.53
                            39 2.56
  31  0.251  0.746  0.097-  16 2.44  36 2.44  18 2.45  33 2.49  34 2.52   3 2.52  45 2.55  49 2.56
                            29 2.63
  32  0.243  0.744  0.374-  37 2.30  46 2.37  17 2.37  63 2.41  19 2.48  30 2.48  50 2.55   4 2.60
                            35 2.61
  33  0.086  0.671  0.192-  46 2.43  37 2.44  43 2.46  45 2.48  44 2.48  31 2.49  16 2.51  36 2.52
                            41 2.52  29 2.54  58 2.55  27 2.60
  34  0.502  0.749  0.098-  18 2.47   5 2.47  40 2.48  36 2.48  20 2.48  62 2.49  38 2.49  31 2.52
                             3 2.52
  35  0.505  0.750  0.374-  47 2.33  61 2.41   6 2.42  63 2.44  39 2.45  21 2.47   4 2.49  19 2.53
                            32 2.61
  36  0.330  0.661  0.190-  18 2.40  31 2.44  61 2.46  34 2.48  58 2.49  37 2.51  63 2.51  33 2.52
                            22 2.53  40 2.53  62 2.56  45 2.62
  37  0.164  0.590  0.286-  32 2.30  17 2.33  19 2.39  46 2.44  33 2.44  43 2.46  63 2.50  58 2.51
                            36 2.51  60 2.54  61 2.60  59 2.61
  38  0.748  0.749  0.094-  29 2.48  23 2.48  34 2.49  20 2.50   5 2.53  40 2.54  64 2.55   1 2.55
                            41 2.58
  39  0.747  0.748  0.373-  47 2.31  42 2.33  48 2.38  35 2.45  21 2.46   6 2.48  24 2.49   2 2.53
                            30 2.56
  40  0.580  0.661  0.192-  61 2.42  20 2.43  25 2.45  22 2.46  42 2.46  34 2.48  47 2.51  36 2.53
                            38 2.54  41 2.54  62 2.56  64 2.57
  41  0.832  0.662  0.193-  42 2.42  43 2.42  27 2.45  25 2.46  23 2.46  48 2.48  29 2.50  33 2.52
                            40 2.54  64 2.54  44 2.57  38 2.58
  42  0.671  0.587  0.286-  39 2.33  24 2.34  21 2.38  25 2.42  41 2.42  40 2.46  47 2.48  48 2.48
                            28 2.50  43 2.51  61 2.54  26 2.60
  43  0.920  0.590  0.286-  30 2.35  17 2.37  24 2.38  41 2.42  46 2.43  48 2.43  33 2.46  37 2.46
                            27 2.51  42 2.51  60 2.54  28 2.59
  44  0.086  0.916  0.194-  46 2.42  45 2.43  11 2.43  48 2.46   9 2.47  33 2.48  10 2.49   1 2.53
                            49 2.53  64 2.54  29 2.56  41 2.57
  45  0.327  0.919  0.193-  44 2.43  13 2.44  63 2.46  46 2.46  33 2.48  10 2.48  49 2.49  12 2.54
                            31 2.55   3 2.55  62 2.59  36 2.62
  46  0.161  0.829  0.286-  30 2.35  32 2.37  44 2.42  43 2.43  33 2.43  37 2.44  48 2.44  45 2.46
                            50 2.46  63 2.53  11 2.56  13 2.64
  47  0.668  0.831  0.287-   6 2.31  39 2.31  35 2.33  42 2.48  64 2.48  62 2.50  61 2.51  40 2.51
                            57 2.51  48 2.55  15 2.58  63 2.59
  48  0.920  0.830  0.287-  30 2.34   2 2.35  39 2.38  43 2.43  46 2.44  44 2.46  41 2.48  42 2.48
                            64 2.50  11 2.55  47 2.55  57 2.58
  49  0.249  0.998  0.096-  45 2.49   1 2.51  44 2.53   3 2.53  53 2.55  31 2.56  29 2.57  10 2.58
                             7 2.58
  50  0.250  0.999  0.378-  46 2.46  11 2.49  13 2.51   2 2.52  30 2.53  54 2.55  32 2.55   8 2.56
                             4 2.60
  51  0.001  0.250  0.097-   7 2.49  58 2.51   9 2.52   1 2.54  55 2.55  14 2.56  18 2.58   5 2.59
                            16 2.63
  52  0.004  0.252  0.377-  59 2.47  57 2.49  60 2.49   8 2.50  19 2.53   2 2.56  56 2.57  17 2.61
                             6 2.64
  53  0.499  0.252  0.095-  55 2.53   7 2.54  20 2.54  49 2.55   3 2.58  25 2.58  12 2.58  10 2.59
                            23 2.60
  54  0.501  0.252  0.379-  26 2.43  28 2.47  13 2.48  56 2.52   8 2.53  24 2.54  50 2.55  21 2.55
                             4 2.61
  55  0.749  0.251  0.096-  14 2.51  27 2.51  53 2.53   5 2.54  51 2.55   3 2.55  12 2.55  23 2.57
                            16 2.60
  56  0.750  0.252  0.377-  15 2.44  60 2.45  28 2.49  54 2.52   4 2.53  24 2.55  52 2.57   6 2.60
                            17 2.61
  57  0.914  0.081  0.283-   2 2.43  64 2.43   6 2.43  14 2.44  52 2.49   9 2.50  47 2.51  15 2.53
                            11 2.54  59 2.57  60 2.57  48 2.58
  58  0.083  0.417  0.192-  59 2.44  60 2.45  36 2.49  37 2.51  51 2.51  18 2.53  33 2.55  14 2.56
                            16 2.57  27 2.59  22 2.60   9 2.62
  59  0.169  0.334  0.283-   8 2.38  19 2.41  58 2.44  52 2.47   9 2.49  22 2.49  11 2.51  61 2.52
                            26 2.56  57 2.57  60 2.58  37 2.61
  60  0.914  0.336  0.284-  14 2.44  58 2.45  56 2.45  17 2.45  27 2.46  52 2.49  15 2.53  43 2.54
[...]
   0.299E+01 -.200E+02 -.206E+04   -.286E+01 0.203E+02 0.205E+04   -.140E+00 -.371E+00 0.275E+01   0.423E-02 0.149E-01 -.304E-02
   -.378E+02 0.252E+02 0.729E+03   0.377E+02 -.252E+02 -.728E+03   -.942E+00 0.392E+00 0.206E+00   0.271E-02 -.875E-02 -.390E-01
   -.344E+02 -.696E+01 0.616E+03   0.346E+02 0.703E+01 -.615E+03   0.467E+00 0.562E-01 -.111E+01   0.655E-02 0.268E-02 -.352E-01
   -.598E+02 0.555E+02 -.693E+03   0.600E+02 -.557E+02 0.693E+03   -.261E+00 0.188E+00 0.503E+00   0.611E-02 0.506E-02 -.371E-01
   0.602E+02 -.251E+02 0.634E+03   -.605E+02 0.250E+02 -.633E+03   -.127E-01 0.179E+00 -.124E+01   -.151E-02 0.406E-02 -.252E-01
   0.203E+02 -.649E+01 -.644E+03   -.200E+02 0.655E+01 0.643E+03   -.353E+00 -.584E-01 0.914E+00   0.171E-01 0.365E-02 -.324E-01
   0.156E+02 0.363E+01 0.706E+03   -.155E+02 -.364E+01 -.705E+03   0.546E+00 -.109E+00 -.551E+00   -.764E-02 -.654E-02 -.274E-01
   0.473E+02 0.157E+02 -.675E+03   -.477E+02 -.157E+02 0.675E+03   0.387E+00 0.112E+00 0.259E+00   -.282E-02 -.114E-01 -.239E-01
   0.758E+01 -.252E+02 0.204E+04   -.753E+01 0.256E+02 -.204E+04   0.223E+00 -.113E+01 -.276E+01   -.135E-01 0.237E-02 -.759E-02
   0.393E+01 -.892E+02 -.202E+04   -.392E+01 0.901E+02 0.202E+04   -.396E-02 -.961E+00 0.209E+01   0.663E-02 -.272E-02 -.483E-02
   -.663E+01 -.111E+02 0.205E+04   0.684E+01 0.110E+02 -.205E+04   -.662E+00 -.565E+00 -.226E+01   0.620E-02 -.612E-02 -.109E-01
   -.487E+01 -.505E+02 -.204E+04   0.488E+01 0.510E+02 0.204E+04   -.135E-01 -.565E+00 0.166E+01   0.137E-01 0.147E-01 0.166E-02
   -.217E+02 -.754E+01 0.202E+04   0.215E+02 0.767E+01 -.202E+04   0.573E+00 -.481E+00 -.235E+01   0.109E-01 -.201E-02 -.275E-02
   -.719E+01 -.476E+02 -.206E+04   0.686E+01 0.477E+02 0.206E+04   0.347E+00 -.188E+00 0.284E+01   -.129E-01 0.144E-01 -.110E-01
   -.511E+02 0.105E+02 0.740E+03   0.510E+02 -.107E+02 -.740E+03   -.740E+00 -.636E-02 0.735E+00   0.144E-01 0.113E-02 -.281E-01
   0.212E+02 -.159E+02 0.200E+04   -.214E+02 0.163E+02 -.200E+04   -.236E+00 -.111E+01 -.259E+01   -.341E-02 0.478E-02 -.153E-02
   0.125E+02 -.699E+02 -.204E+04   -.123E+02 0.707E+02 0.203E+04   -.153E+00 -.756E+00 0.310E+01   -.189E-01 -.487E-02 -.160E-01
   -.152E+02 0.412E+01 0.628E+03   0.153E+02 -.442E+01 -.627E+03   0.774E-01 -.526E+00 -.522E+00   0.360E-02 0.377E-02 -.287E-01
   -.675E+02 0.762E+01 -.671E+03   0.677E+02 -.778E+01 0.671E+03   -.290E+00 0.144E+00 0.327E+00   0.891E-02 0.676E-02 -.329E-01
   0.432E+02 -.504E+02 0.680E+03   -.430E+02 0.505E+02 -.679E+03   0.715E+00 -.279E+00 -.202E+00   -.141E-01 -.761E-03 -.314E-01
   0.579E+02 -.555E+02 -.646E+03   -.581E+02 0.557E+02 0.645E+03   0.259E+00 -.149E+00 0.714E+00   -.349E-02 -.108E-01 -.446E-01
   -.485E+01 -.360E+01 0.201E+04   0.461E+01 0.350E+01 -.200E+04   0.645E+00 0.589E+00 -.246E+01   -.114E-01 0.374E-02 -.623E-02
   0.941E+01 0.176E+02 -.202E+04   -.980E+01 -.182E+02 0.202E+04   0.418E+00 0.566E+00 0.287E+01   -.717E-02 0.454E-02 -.142E-01
   0.146E+02 -.726E+01 0.202E+04   -.144E+02 0.698E+01 -.202E+04   -.453E+00 0.697E+00 -.261E+01   -.862E-02 0.654E-02 -.968E-02
   0.989E+01 0.236E+02 -.202E+04   -.956E+01 -.242E+02 0.202E+04   -.331E+00 0.529E+00 0.220E+01   0.279E-01 0.611E-02 -.452E-02
   0.477E+02 -.243E+02 0.672E+03   -.478E+02 0.241E+02 -.672E+03   0.911E-01 -.436E+00 -.989E-01   -.123E-01 0.303E-02 -.351E-01
   -.797E+00 0.118E+02 0.204E+04   0.776E+00 -.113E+02 -.204E+04   -.825E-01 -.115E+00 -.181E+01   0.111E-01 0.227E-02 -.398E-02
   -.269E+02 -.426E+00 -.201E+04   0.268E+02 0.575E+00 0.201E+04   0.815E-01 -.174E+00 0.108E+01   0.703E-02 0.681E-02 -.103E-01
   0.176E+02 -.253E+02 0.742E+03   -.176E+02 0.256E+02 -.741E+03   0.206E+00 0.384E+00 0.351E+00   0.107E-01 0.626E-02 -.209E-01
   0.653E+02 -.830E+02 -.662E+03   -.657E+02 0.834E+02 0.662E+03   0.349E+00 -.427E+00 0.101E+00   0.130E-01 0.365E-02 -.249E-01
   -.107E+02 0.118E+02 0.204E+04   0.108E+02 -.115E+02 -.204E+04   0.294E-02 0.146E+00 -.228E+01   0.100E-01 -.407E-03 -.757E-03
   0.597E+01 0.145E+02 -.204E+04   -.585E+01 -.143E+02 0.203E+04   -.854E-01 -.141E+00 0.281E+01   -.310E-01 -.260E-04 -.114E-01
   -.538E+02 0.213E+02 0.700E+03   0.540E+02 -.209E+02 -.699E+03   0.859E-01 0.444E+00 0.220E-01   0.101E-01 0.210E-02 -.209E-01
   -.120E+02 0.167E+01 0.640E+03   0.121E+02 -.133E+01 -.639E+03   -.358E+00 0.479E+00 -.879E-01   -.886E-02 -.161E-02 -.354E-01
   -.563E+02 -.552E+01 -.733E+03   0.566E+02 0.553E+01 0.733E+03   -.333E+00 -.161E-01 0.261E+00   -.135E-01 0.535E-02 -.369E-01
   0.458E+02 -.608E+02 -.687E+03   -.460E+02 0.609E+02 0.687E+03   0.166E+00 -.119E+00 0.182E+00   -.899E-02 -.700E-02 -.519E-01
   -.934E+01 0.412E+02 0.636E+03   0.885E+01 -.414E+02 -.635E+03   -.329E-01 0.296E-01 -.333E+00   -.639E-02 -.189E-02 -.413E-01
   0.233E+02 -.148E+01 0.667E+03   -.228E+02 0.164E+01 -.666E+03   0.549E+00 -.268E+00 -.858E-01   0.166E-02 0.901E-02 -.279E-01
   0.436E+02 0.245E+02 -.684E+03   -.438E+02 -.248E+02 0.684E+03   0.246E+00 0.269E+00 0.530E+00   0.950E-02 0.613E-02 -.441E-01
   -.515E+02 0.452E+02 -.677E+03   0.517E+02 -.453E+02 0.677E+03   -.124E+00 0.119E+00 -.986E-01   -.281E-02 -.854E-02 -.230E-01
   -.449E+02 0.782E+02 -.708E+03   0.453E+02 -.785E+02 0.709E+03   -.380E+00 0.326E+00 -.987E-01   -.186E-01 -.341E-02 -.442E-01
   0.106E+02 0.307E+02 0.251E+04   -.107E+02 -.307E+02 -.251E+04   0.145E+00 0.171E+00 -.938E+00   -.112E-01 0.444E-02 -.945E-02
   0.216E+02 0.603E+02 -.251E+04   -.218E+02 -.606E+02 0.251E+04   0.180E+00 0.291E+00 0.101E+01   0.221E-01 0.147E-01 -.952E-02
   -.113E+02 0.317E+01 0.255E+04   0.115E+02 -.329E+01 -.255E+04   -.495E+00 0.119E+00 -.117E+01   0.496E-02 -.114E-01 -.130E-01
   -.326E+02 -.273E+01 -.253E+04   0.329E+02 0.274E+01 0.253E+04   -.234E+00 -.192E-01 -.418E+00   -.472E-02 -.345E-02 -.998E-02
   0.138E+02 -.319E+02 0.250E+04   -.139E+02 0.321E+02 -.249E+04   0.217E+00 -.201E+00 -.153E+01   -.203E-02 0.339E-02 -.359E-02
   0.208E+02 -.368E+02 -.249E+04   -.212E+02 0.370E+02 0.249E+04   0.322E+00 -.182E+00 0.868E+00   0.147E-02 -.303E-02 -.182E-01
   0.138E+02 -.219E+02 0.253E+04   -.138E+02 0.218E+02 -.252E+04   -.193E-01 0.361E-01 -.168E+01   -.877E-02 0.398E-02 -.348E-02
   0.205E+02 -.181E+01 -.252E+04   -.208E+02 0.166E+01 0.252E+04   0.323E+00 0.149E+00 0.750E+00   -.977E-02 -.214E-01 -.173E-01
   -.199E+02 0.105E+03 -.794E+03   0.197E+02 -.105E+03 0.793E+03   0.134E+00 0.323E+00 0.331E+00   -.172E-01 -.183E-01 -.412E-01
   0.278E+02 -.436E+02 0.922E+03   -.281E+02 0.436E+02 -.922E+03   0.945E-01 -.404E+00 -.244E+00   -.543E-02 -.465E-02 -.393E-01
   -.891E+02 -.845E+01 -.763E+03   0.893E+02 0.850E+01 0.763E+03   -.236E+00 -.619E-01 0.179E+00   0.133E-01 0.581E-02 -.365E-01
   0.957E+02 -.734E+02 -.768E+03   -.960E+02 0.737E+02 0.767E+03   0.216E+00 -.261E+00 0.383E+00   -.130E-01 -.127E-01 -.453E-01
   -.704E+02 -.128E+02 -.831E+03   0.706E+02 0.130E+02 0.830E+03   -.274E+00 -.238E+00 0.335E+00   0.192E-01 0.163E-01 -.235E-01
   0.305E+02 0.496E+01 0.890E+03   -.307E+02 -.500E+01 -.889E+03   0.960E-01 0.290E-01 -.188E+00   0.706E-02 0.158E-02 -.220E-01
   0.598E+02 -.226E+02 -.815E+03   -.600E+02 0.228E+02 0.815E+03   0.186E+00 -.177E+00 0.135E-01   0.265E-01 0.736E-02 -.233E-01
   -.505E+02 0.604E+02 0.889E+03   0.505E+02 -.606E+02 -.889E+03   -.446E+00 0.275E+00 -.439E-01   -.180E-02 -.113E-01 -.385E-01
   -.105E+01 -.145E+00 0.343E+01   -.242E-12 0.227E-12 0.159E-11   0.104E+01 0.145E+00 -.211E+01   0.541E-02 0.431E-02 -.131E+01

 POSITION                                       TOTAL-FORCE (eV/Angst)
     -5.03208      8.74992      2.05921        -0.205945     -0.118148     -0.277619
      0.01608     -0.00905      8.31994         0.015871      0.010019     -0.006465
      0.00574      8.72607      2.04467        -0.327884      0.416958     -0.088864
      5.05367      0.03871      8.29252         0.010426      0.012474     -0.014702
      2.47665      8.72592      2.00820         0.328746      0.174426      0.087350
      7.61382     -0.00360      8.21321         0.028208      0.014617     -0.029943
      1.23891      2.21748      2.05881         0.444353     -0.130340     -0.653883
      1.33480      2.15879      8.29923        -0.002710     -0.023090      0.001041
      0.08074      1.41419      4.05320        -1.015701      0.331875      0.568960
      2.49330      1.45451      4.14829         0.680598      0.121249     -0.382519
      1.20657      0.75352      6.27261        -0.010485      0.004473      0.001511
      5.06166      1.44930      4.13498        -0.334778      0.074923     -0.543944
      3.75519      0.73647      6.24559        -0.020367      0.000575     -0.001502
      7.51557      1.45812      4.11001         0.641011     -0.127827     -0.154054
      6.27747      0.70011      6.20036        -0.012989      0.007726      0.021015
     -2.55062      4.47399      2.00996         0.260502     -0.743889      0.087637
     -2.49550      4.33035      8.23378         0.012220     -0.037070     -0.008041
      0.03014      4.42905      2.07021        -0.445967     -0.665360     -0.686753
      0.05202      4.33690      8.19193         0.007594     -0.028302     -0.018103
      2.50847      4.40516      2.07435         0.384124     -0.357789     -0.930325
      2.54243      4.38607      8.35012         0.004033     -0.020602     -0.008852
      1.32139      3.64145      4.02772        -0.862943     -0.202968      1.273800
      5.08382      4.44890      2.04816        -0.361832     -0.755681     -0.581680
      5.10301      4.36246      8.38115         0.031518     -0.029806      0.021111
      3.79377      3.69800      4.13070         0.108527     -0.820229      0.205851
      2.47594      2.98306      6.24726        -0.024332     -0.006896     -0.011792
      6.25293      3.64956      4.08305         0.840851     -0.133675      0.285568
      5.06386      2.91883      6.25151         0.003689      0.009536      0.006994
      6.25194      6.54167      2.03547         0.389685      0.493943     -0.487413
     -3.78491      6.53602      8.36148         0.018401     -0.014152      0.032736
     -1.23133      6.52951      2.06362        -0.278743      0.418737     -0.681696
     -1.23783      6.53244      8.25020         0.030759     -0.022283     -0.013103
     -2.52172      5.87475      4.08746         0.008293     -0.590780      0.285421
      1.28426      6.55944      2.07409        -0.092636      0.386601     -0.643787
      1.23396      6.58908      8.16518         0.010201     -0.018648     -0.006033
     -0.00626      5.79145      4.04458         0.205590      0.742370      1.023022
     -1.24593      5.05075      6.12428        -0.033017      0.013374      0.011554
      3.77628      6.55571      2.00000         0.067978      0.390485     -0.279613
      3.81325      6.58821      8.37062         0.008075     -0.000372     -0.015497
      2.52387      5.78801      4.07310         0.250149      0.820906      0.631463
      5.06734      5.79704      4.10517        -0.328785      0.822113      0.590732
      3.75204      5.14804      6.28529        -0.005260     -0.003467      0.006629
      6.31585      5.10436      6.22762        -0.005672      0.027083      0.015153
     -3.76296      8.02446      4.11956        -0.526233     -0.179939      0.097908
     -1.33707      8.05044      4.10307         1.024349     -0.097929      0.229265
     -2.56467      7.28414      6.23641        -0.014422     -0.022189     -0.003958
      2.47666      7.30503      6.10206        -0.003098      0.024068     -0.006462
      4.99209      7.33507      6.21707        -0.009093      0.004171     -0.012132
     -2.52690      8.74056      2.03303         0.003460      0.149662      0.158400
      2.56587     -0.01330      8.27896        -0.011716     -0.004812     -0.007693
     -1.24953      2.18697      2.05404        -0.310378     -0.015348      0.276323
     -1.21430      2.17610      8.11282         0.019739     -0.017437     -0.028255
      3.77687      2.20348      2.02824         0.075259     -0.031029      0.553944
      3.83080      2.21003      8.25647         0.002642     -0.013189     -0.028612
      6.31052      2.19548      2.03585        -0.003568      0.035442      0.137026
      6.36245      2.17701      8.20754         0.039383     -0.028064      0.009123
      8.83783      0.74036      6.13680        -0.012417      0.011109     -0.041488
     -1.27338      3.65234      4.08854        -0.136878     -0.397132     -0.119784
      0.00875      2.90202      6.10119         0.026215     -0.002871     -0.020247
      7.57855      2.90576      6.14133        -0.018038      0.013142     -0.009139
      1.24179      5.10341      6.14801        -0.012542     -0.004488     -0.008447
      1.25660      8.01495      4.09193        -0.094913     -0.009228      0.105490
     -0.03507      7.26305      6.11608        -0.031844      0.028581     -0.021822
      3.80919      8.00883      4.09175        -0.427264      0.114391      0.109193
    total drift:                               -0.003452      0.003573      0.003161

  FREE ENERGIE OF THE ION-ELECTRON SYSTEM (eV)
  free  energy   TOTEN  =      -455.40504201 eV

  energy  without entropy=     -455.44667849  energy(sigma->0) =     -455.41892084

 d Force = 0.5121045E-02[ 0.345E-02, 0.680E-02]  d Energy = 0.4796823E-02 0.324E-03
 d Force =-0.3076194E+02[-0.307E+02,-0.308E+02]  d Ewald  =-0.3076187E+02-0.675E-04

 Conjugate gradient step on ions:
 trial-energy change:   -0.004797  1 .order   -0.005121   -0.006796   -0.003446
  (g-gl).g = 0.299E-02      g.g   = 0.306E-02  gl.gl    = 0.679E-02
 g(Force)  = 0.306E-02   g(Stress)= 0.000E+00 ortho     = 0.854E-05
 gamma     =   0.44031
 trial     =   2.21614
 opt step  =   4.49660  (harmonic =   4.49660) maximal distance =0.02229707
 next E    =  -455.407139   (d E  =  -0.00689)

 reached required accuracy - stopping structural energy minimisation

 total charge

[...]

 magnetization (x)

# of ion       s       p       d       tot
    1       -0.003  -0.011   2.732   2.717
    2       -0.003  -0.008   2.739   2.728
    3       -0.001  -0.009   2.776   2.767
    4        0.000  -0.014   2.799   2.784
    5        0.002  -0.009   2.776   2.769
    6       -0.004  -0.016   2.762   2.742
    7       -0.004  -0.011   2.695   2.681
    8        0.001  -0.010   2.731   2.722
    9       -0.011  -0.031   2.609   2.568
   10       -0.014  -0.038   2.580   2.528
   11       -0.013  -0.040   2.619   2.566
   12       -0.013  -0.037   2.596   2.547
   13       -0.013  -0.037   2.608   2.558
   14       -0.002  -0.017   2.710   2.690
   15       -0.010  -0.033   2.608   2.565
   16       -0.002  -0.007   2.738   2.729
   17       -0.004  -0.021   2.743   2.717
   18       -0.008  -0.017   2.648   2.623
   19       -0.004  -0.021   2.726   2.700
   20       -0.011  -0.018   2.650   2.621
   21       -0.006  -0.013   2.715   2.696
   22       -0.017  -0.044   2.545   2.485
   23       -0.007  -0.015   2.681   2.659
   24       -0.004  -0.015   2.756   2.736
   25       -0.018  -0.043   2.569   2.508
   26       -0.012  -0.041   2.648   2.595
   27       -0.013  -0.038   2.599   2.548
   28       -0.009  -0.034   2.630   2.587
   29       -0.010  -0.027   2.656   2.619
   30       -0.005  -0.022   2.742   2.715
   31       -0.012  -0.022   2.646   2.612
   32       -0.006  -0.024   2.710   2.680
   33       -0.019  -0.052   2.550   2.479
   34       -0.011  -0.033   2.600   2.556
   35       -0.008  -0.030   2.706   2.668
   36       -0.014  -0.038   2.575   2.523
   37       -0.008  -0.034   2.665   2.623
   38       -0.008  -0.025   2.662   2.628
   39       -0.009  -0.026   2.710   2.675
   40       -0.016  -0.042   2.555   2.498
   41       -0.017  -0.050   2.599   2.533
   42       -0.017  -0.053   2.633   2.563
   43       -0.017  -0.051   2.636   2.567
   44       -0.016  -0.045   2.544   2.484
   45       -0.013  -0.038   2.573   2.522
   46       -0.013  -0.040   2.637   2.584
   47       -0.008  -0.035   2.631   2.588
   48       -0.015  -0.047   2.637   2.575
   49       -0.033  -0.033   0.721   0.655
   50       -0.034  -0.038   0.724   0.652
   51       -0.030  -0.026   0.706   0.650
   52       -0.027  -0.036   0.715   0.651
   53       -0.029  -0.023   0.710   0.658
   54       -0.030  -0.036   0.719   0.652
   55       -0.030  -0.024   0.720   0.666
   56       -0.028  -0.033   0.714   0.653
   57       -0.029  -0.056   0.743   0.658
   58       -0.030  -0.053   0.715   0.632
   59       -0.025  -0.047   0.754   0.682
   60       -0.025  -0.045   0.724   0.654
   61       -0.032  -0.068   0.745   0.644
   62       -0.034  -0.071   0.761   0.656
   63       -0.031  -0.066   0.776   0.679
   64       -0.032  -0.064   0.776   0.680
tot         -0.923  -2.103 139.378 136.352