 vasp.5.4.4.18Apr17-6-g9f103f2a35 (build Dec 15 2018 21:27:11) complex

 executed on             LinuxIFC date 2022.03.01  22:09:46

 INCAR:
 POTCAR:    PAW_PBE Fe 06Sep2000
 POTCAR:    PAW_PBE O 08Apr2002

 POTCAR:    PAW_PBE Fe 06Sep2000
   VRHFIN =Fe:  d7 s1

   TITEL  = PAW_PBE Fe 06Sep2000
   POMASS =   55.847; ZVAL   =    8.000    mass and valenz
   ENMAX  =  267.882; ENMIN  =  200.911 eV

 POTCAR:    PAW_PBE O 08Apr2002
   VRHFIN =O: s2p4

   TITEL  = PAW_PBE O 08Apr2002
   POMASS =   16.000; ZVAL   =    6.000    mass and valenz
   ENMAX  =  400.000; ENMIN  =  300.000 eV

 Optimization of the real space projectors (new method)

 maximal supplied QI-value         = 16.25
 optimisation between [QCUT,QGAM] = [ 11.54, 23.24] = [ 37.28,151.24] Ry
 Optimized for a Real-space Cutoff    1.53 Angstroem

   l    n(q)    QCUT    max X(q) W(low)/X(q) W(high)/X(q)  e(spline)
   2     10    11.539    80.901    0.11E-03    0.14E-03    0.21E-06
   2     10    11.539    75.754    0.11E-03    0.14E-03    0.22E-06
   0     11    11.539    58.752    0.52E-04    0.18E-04    0.33E-06
   0     11    11.539    30.679    0.44E-04    0.16E-04    0.30E-06
   1     10    11.539    17.977    0.53E-04    0.29E-04    0.13E-06
   1     10    11.539    13.559    0.44E-04    0.25E-04    0.11E-06
 Optimization of the real space projectors (new method)

 maximal supplied QI-value         = 24.76
 optimisation between [QCUT,QGAM] = [ 11.64, 23.27] = [ 37.91,151.63] Ry
 Optimized for a Real-space Cutoff    1.14 Angstroem

   l    n(q)    QCUT    max X(q) W(low)/X(q) W(high)/X(q)  e(spline)
   0      8    11.635    20.381    0.10E-03    0.33E-03    0.24E-06
   0      8    11.635    15.268    0.11E-03    0.35E-03    0.26E-06
   1      7    11.635     5.964    0.24E-03    0.31E-03    0.30E-06
   1      7    11.635     5.382    0.22E-03    0.25E-03    0.26E-06
  PAW_PBE Fe 06Sep2000                  :
  PAW_PBE O 08Apr2002                   :

 POSCAR: POSCAR
  positions in direct lattice
  velocities in cartesian coordinates
 exchange correlation table for  LEXCH =        8
   RHO(1)=    0.500       N(1)  =     2000
   RHO(2)=  100.500       N(2)  =     4000

 VTST: version 3.2, (02/03/18)

 CHAIN: initializing optimizer

 OPT: Using VASP Conjugate-Gradient optimizer
 CHAIN: Read ICHAIN            0

 POSCAR: POSCAR
  positions in direct lattice
  velocities in cartesian coordinates

 ion  position               nearest neighbor table
   1  0.087  0.163  0.095-   5 2.48  13 2.48  17 2.48  49 2.48  31 2.48   3 2.48  29 2.87  53 2.87
                            15 2.87  19 2.87
   2  0.087  0.162  0.286-  32 2.45   4 2.46  31 2.46   3 2.46  14 2.48  50 2.48  18 2.48   6 2.48
                            16 2.79  20 2.80  15 2.85  19 2.85  30 2.87  54 2.87
   3  0.212  0.038  0.191-   2 2.46  54 2.47  15 2.48   7 2.48  51 2.48  19 2.48  53 2.48   1 2.48
                             6 2.82  50 2.83  31 2.87  55 2.87  49 2.87   5 2.87
   4  0.216  0.041  0.381-  65 2.19  54 2.45   2 2.46  16 2.46  52 2.47  20 2.51   8 2.51   6 2.84
                            56 2.87  32 2.87  50 2.91
   5  0.337  0.163  0.095-   1 2.48   9 2.48  21 2.48  53 2.48   7 2.48  19 2.48  17 2.87  57 2.87
                             3 2.87  23 2.87
   6  0.337  0.162  0.284-   7 2.43  19 2.43  54 2.48  10 2.48   2 2.48  22 2.49  20 2.50   8 2.50
                             3 2.82  23 2.82   4 2.84  24 2.84  58 2.86  18 2.87
   7  0.462  0.038  0.191-   6 2.43  58 2.43  11 2.48   3 2.48  55 2.48  23 2.48  57 2.48   5 2.48
                            54 2.85  10 2.85  19 2.87  59 2.87  53 2.87   9 2.87
   8  0.472  0.028  0.377-  65 1.85  58 2.37  12 2.46  56 2.47   6 2.50  24 2.51   4 2.51  60 2.65
                            10 2.79  54 2.80  20 3.08
   9  0.587  0.163  0.095-   5 2.48  13 2.48  25 2.48  57 2.48  11 2.48  23 2.48  21 2.87  61 2.87
                             7 2.87  27 2.87
  10  0.587  0.163  0.286-  12 2.45  24 2.46  23 2.47  11 2.47  58 2.48  14 2.48   6 2.48  26 2.48
                             8 2.79  28 2.79   7 2.85  27 2.85  22 2.87  62 2.87
  11  0.712  0.038  0.191-  10 2.47  62 2.47  15 2.48   7 2.48  59 2.48  27 2.48  61 2.48   9 2.48
                            14 2.82  58 2.82  23 2.87  63 2.87  57 2.87  13 2.87
  12  0.715  0.041  0.381-  66 2.18  10 2.45  62 2.46   8 2.46  60 2.47  28 2.51  16 2.51  14 2.84
                            24 2.87  64 2.87  58 2.91
  13  0.837  0.163  0.095-   1 2.48   9 2.48  29 2.48  61 2.48  15 2.48  27 2.48  49 2.87  25 2.87
                            11 2.87  31 2.87
  14  0.837  0.162  0.284-  15 2.43  27 2.43  62 2.48  10 2.48   2 2.48  30 2.49  16 2.50  28 2.50
                            11 2.82  31 2.82  12 2.84  32 2.84  26 2.87  50 2.87
  15  0.962  0.038  0.191-  14 2.43  50 2.44   3 2.48  11 2.48  31 2.48  63 2.48  13 2.48  49 2.48
                             2 2.85  62 2.85  27 2.87  51 2.87   1 2.87  61 2.87
  16  0.972  0.028  0.377-  66 1.85  50 2.36   4 2.46  64 2.47  14 2.50  32 2.51  12 2.51  52 2.65
                            62 2.79   2 2.79  28 3.09
  17  0.087  0.413  0.095-  21 2.48  29 2.48   1 2.48  33 2.48  19 2.48  47 2.48  45 2.87   5 2.87
                            31 2.87  35 2.87
  18  0.087  0.412  0.284-  20 2.37  48 2.37  47 2.43  19 2.43  30 2.48   2 2.48  34 2.48  22 2.48
                            31 2.82  35 2.83  46 2.87   6 2.87  32 2.90  36 2.91
  19  0.212  0.288  0.191-   6 2.43  18 2.43  23 2.48  31 2.48   3 2.48  35 2.48   5 2.48  17 2.48
                            22 2.85   2 2.85   7 2.87  47 2.87  21 2.87   1 2.87
  20  0.203  0.297  0.377-  65 1.85  18 2.37  32 2.46  36 2.47   6 2.50   4 2.51  24 2.51  48 2.65
                            22 2.79   2 2.80   8 3.08
  21  0.337  0.413  0.095-  17 2.48  25 2.48   5 2.48  37 2.48  35 2.48  23 2.48   9 2.87  33 2.87
                            19 2.87  39 2.87
  22  0.337  0.413  0.286-  24 2.45  36 2.45  35 2.47  23 2.47  18 2.48  26 2.48   6 2.49  38 2.49
                            40 2.79  20 2.79  19 2.85  39 2.85  10 2.87  34 2.87
  23  0.462  0.288  0.191-  10 2.47  22 2.47  19 2.48  27 2.48   7 2.48  39 2.48  21 2.48   9 2.48
                             6 2.82  26 2.83  35 2.87  11 2.87   5 2.87  25 2.87
  24  0.459  0.285  0.381-  65 2.20  22 2.45  10 2.46  28 2.46  40 2.47   8 2.51  20 2.51   6 2.84
                            36 2.86  12 2.87  26 2.91
  25  0.587  0.413  0.095-  21 2.48  29 2.48   9 2.48  41 2.48  39 2.48  27 2.48  13 2.87  37 2.87
                            23 2.87  43 2.87
  26  0.588  0.413  0.284-  40 2.37  28 2.37  39 2.43  27 2.43  30 2.48  42 2.48  10 2.48  22 2.48
                            43 2.82  23 2.83  14 2.87  38 2.87  44 2.90  24 2.91
  27  0.712  0.288  0.191-  14 2.43  26 2.43  23 2.48  31 2.48  11 2.48  43 2.48  25 2.48  13 2.48
                            30 2.85  10 2.85  39 2.87  15 2.87   9 2.87  29 2.87
  28  0.703  0.297  0.377-  66 1.85  26 2.37  24 2.46  44 2.47  14 2.50  12 2.51  32 2.51  40 2.65
                            10 2.79  30 2.80  16 3.09
  29  0.837  0.413  0.095-  17 2.48  25 2.48  13 2.48  45 2.48  43 2.48  31 2.48   1 2.87  41 2.87
                            27 2.87  47 2.87
  30  0.837  0.413  0.286-  32 2.45  44 2.45  43 2.47  31 2.47  18 2.48  26 2.48  46 2.49  14 2.49
                            48 2.80  28 2.80  27 2.85  47 2.85  42 2.87   2 2.87
  31  0.962  0.288  0.191-   2 2.46  30 2.47  27 2.48  19 2.48  15 2.48  47 2.48   1 2.48  29 2.48
                            14 2.82  18 2.82  43 2.87   3 2.87  17 2.87  13 2.87
  32  0.959  0.284  0.381-  66 2.20   2 2.45  30 2.45  20 2.46  48 2.47  16 2.51  28 2.51  14 2.84
                             4 2.87  44 2.87  18 2.90
  33  0.087  0.663  0.095-  37 2.48  45 2.48  17 2.48  49 2.48  35 2.48  63 2.48  61 2.87  21 2.87
                            47 2.87  51 2.87
  34  0.088  0.663  0.286-  64 2.45  36 2.46  35 2.47  63 2.47  50 2.48  46 2.48  38 2.48  18 2.48
                            52 2.79  48 2.79  51 2.85  47 2.85  22 2.87  62 2.87
  35  0.212  0.538  0.191-  34 2.47  22 2.47  39 2.48  47 2.48  19 2.48  51 2.48  21 2.48  33 2.48
                            38 2.82  18 2.83  23 2.87  63 2.87  37 2.87  17 2.87
  36  0.216  0.541  0.381-  68 2.20  22 2.45  34 2.46  48 2.46  20 2.47  52 2.51  40 2.51  38 2.84
                            24 2.86  64 2.87  18 2.91
  37  0.337  0.663  0.095-  33 2.48  41 2.48  21 2.48  53 2.48  51 2.48  39 2.48  25 2.87  49 2.87
                            35 2.87  55 2.87
  38  0.337  0.663  0.284-  51 2.43  39 2.43  54 2.48  34 2.48  42 2.48  22 2.49  40 2.50  52 2.50
                            55 2.82  35 2.82  56 2.84  36 2.84  50 2.86  26 2.87
  39  0.462  0.538  0.191-  38 2.43  26 2.43  35 2.48  43 2.48  23 2.48  55 2.48  37 2.48  25 2.48
                            22 2.85  42 2.85  51 2.87  27 2.87  21 2.87  41 2.87
  40  0.472  0.528  0.377-  68 1.85  26 2.37  44 2.46  24 2.47  38 2.50  56 2.51  36 2.51  28 2.65
                            22 2.79  42 2.80  52 3.08
  41  0.587  0.663  0.095-  37 2.48  45 2.48  25 2.48  57 2.48  55 2.48  43 2.48  29 2.87  53 2.87
                            39 2.87  59 2.87
  42  0.588  0.663  0.286-  44 2.45  56 2.46  43 2.46  55 2.46  46 2.48  26 2.48  58 2.48  38 2.48
                            60 2.79  40 2.80  59 2.85  39 2.85  30 2.87  54 2.87
  43  0.712  0.538  0.191-  42 2.46  30 2.47  39 2.48  47 2.48  27 2.48  59 2.48  41 2.48  29 2.48
                            46 2.82  26 2.82  55 2.87  31 2.87  25 2.87  45 2.87
  44  0.716  0.541  0.381-  67 2.20  42 2.45  30 2.45  40 2.46  28 2.47  60 2.51  48 2.51  46 2.84
                            56 2.87  32 2.87  26 2.90
  45  0.837  0.663  0.095-  33 2.48  41 2.48  29 2.48  61 2.48  59 2.48  47 2.48  17 2.87  57 2.87
                            43 2.87  63 2.87
  46  0.838  0.663  0.284-  59 2.43  47 2.43  62 2.48  34 2.48  42 2.48  30 2.49  60 2.50  48 2.50
                            63 2.82  43 2.82  64 2.84  44 2.84  18 2.87  58 2.87
  47  0.962  0.538  0.191-  46 2.43  18 2.43  43 2.48  35 2.48  31 2.48  63 2.48  17 2.48  45 2.48
                            30 2.85  34 2.85  59 2.87  19 2.87  33 2.87  29 2.87
  48  0.972  0.528  0.377-  67 1.85  18 2.37  36 2.46  32 2.47  46 2.50  64 2.51  44 2.51  20 2.65
                            34 2.79  30 2.80  60 3.09
  49  0.087  0.913  0.095-  53 2.48  61 2.48   1 2.48  33 2.48  15 2.48  51 2.48  37 2.87  13 2.87
                             3 2.87  63 2.87
  50  0.087  0.912  0.284-  16 2.36  52 2.37  51 2.44  15 2.44  34 2.48  62 2.48   2 2.48  54 2.48
                            63 2.82   3 2.83  38 2.86  14 2.87   4 2.91  64 2.91
  51  0.212  0.788  0.191-  38 2.43  50 2.44  55 2.48  63 2.48   3 2.48  35 2.48  49 2.48  37 2.48
                            54 2.85  34 2.85  39 2.87  15 2.87  53 2.87  33 2.87
  52  0.203  0.797  0.377-  68 1.85  50 2.37  64 2.46   4 2.47  38 2.50  36 2.51  56 2.51  16 2.65
                            34 2.79  54 2.80  40 3.08
  53  0.337  0.913  0.095-  49 2.48  57 2.48   5 2.48  37 2.48  55 2.48   3 2.48  41 2.87   1 2.87
                             7 2.87  51 2.87
[...]
   0.174E+00 -.575E+00 0.725E+03   -.167E+00 0.590E+00 -.726E+03   -.103E-01 0.111E-01 -.362E+00   -.563E-02 -.160E-01 0.727E-02
   0.574E+02 -.817E+02 -.168E+04   -.588E+02 0.837E+02 0.168E+04   0.141E+01 -.201E+01 0.217E+01   0.156E-01 0.154E-01 0.111E-01
   0.140E-03 -.623E-04 0.191E+04   -.303E-03 0.417E-03 -.190E+04   0.201E-03 0.159E-05 -.334E+01   0.798E-04 -.467E-03 -.266E-01
   -.245E-01 0.136E-01 -.500E+03   0.225E-01 -.149E-01 0.499E+03   0.144E-02 0.297E-04 0.490E+00   0.859E-03 0.119E-02 0.558E-01
   -.187E+00 -.215E+00 0.721E+03   0.238E+00 0.261E+00 -.721E+03   -.282E-01 -.206E-01 -.544E+00   -.208E-02 -.912E-02 0.719E-02
   -.474E+02 -.336E+02 -.176E+04   0.495E+02 0.351E+02 0.175E+04   -.216E+01 -.155E+01 0.425E+01   -.377E-02 0.182E-01 0.134E-01
   0.388E-01 0.832E-02 0.191E+04   -.459E-01 -.102E-01 -.190E+04   -.365E-04 -.357E-03 -.345E+01   0.758E-02 0.176E-02 -.250E-01
   0.390E+00 0.231E-01 -.468E+03   -.394E+00 -.186E-01 0.468E+03   -.669E-02 -.513E-02 0.864E-01   0.208E-03 0.397E-03 0.464E-01
   0.511E+00 -.518E+00 0.726E+03   -.531E+00 0.531E+00 -.726E+03   -.919E-02 0.107E-01 -.362E+00   0.179E-01 -.121E-01 0.103E-01
   0.566E+02 -.818E+02 -.168E+04   -.580E+02 0.838E+02 0.168E+04   0.141E+01 -.201E+01 0.218E+01   -.855E-02 -.208E-02 0.764E-02
   -.565E-03 0.131E-03 0.191E+04   0.611E-03 -.119E-03 -.190E+04   0.251E-03 0.134E-03 -.334E+01   -.988E-04 -.404E-03 -.146E-01
   0.811E-02 -.687E-02 -.500E+03   -.775E-02 0.676E-02 0.499E+03   0.393E-03 -.127E-03 0.487E+00   -.531E-03 0.425E-04 0.242E-01
   -.237E+00 -.222E+00 0.722E+03   0.299E+00 0.271E+00 -.721E+03   -.311E-01 -.217E-01 -.547E+00   -.100E-01 -.123E-01 0.519E-02
   -.472E+02 -.340E+02 -.176E+04   0.493E+02 0.355E+02 0.175E+04   -.217E+01 -.154E+01 0.425E+01   -.219E-02 0.581E-02 0.725E-02
   -.204E-01 -.285E-02 0.191E+04   0.219E-01 -.126E-01 -.190E+04   0.598E-03 -.282E-03 -.334E+01   -.237E-02 0.161E-01 -.198E-01
   -.155E+00 0.282E+00 -.500E+03   0.159E+00 -.280E+00 0.500E+03   -.462E-02 0.109E-02 0.487E+00   -.282E-02 -.293E-02 0.367E-01
   0.191E+00 0.208E+00 0.721E+03   -.243E+00 -.254E+00 -.721E+03   0.278E-01 0.194E-01 -.544E+00   0.274E-02 0.941E-02 0.772E-02
   0.477E+02 0.339E+02 -.176E+04   -.499E+02 -.355E+02 0.175E+04   0.215E+01 0.154E+01 0.424E+01   0.567E-02 -.149E-01 0.135E-01
   0.251E-01 0.113E-01 0.191E+04   -.276E-01 -.276E-01 -.190E+04   -.500E-03 -.673E-03 -.337E+01   0.316E-02 0.165E-01 -.213E-01
   0.152E+00 0.385E+00 -.466E+03   -.152E+00 -.384E+00 0.465E+03   -.522E-02 -.735E-02 0.128E+01   0.694E-03 -.438E-02 0.347E-01
   -.165E+00 0.567E+00 0.725E+03   0.156E+00 -.582E+00 -.726E+03   0.104E-01 -.115E-01 -.362E+00   0.583E-02 0.160E-01 0.843E-02
   -.578E+02 0.815E+02 -.168E+04   0.592E+02 -.835E+02 0.168E+04   -.141E+01 0.200E+01 0.216E+01   -.164E-01 -.134E-01 0.110E-01
   0.153E-01 -.117E-01 0.191E+04   -.200E-01 -.826E-03 -.190E+04   0.444E-03 -.590E-03 -.334E+01   0.439E-02 0.127E-01 -.118E-01
   0.199E+00 0.959E-01 -.499E+03   -.210E+00 -.956E-01 0.499E+03   -.718E-02 -.344E-02 0.493E+00   0.831E-02 0.372E-04 0.158E-01
   0.239E+00 0.219E+00 0.722E+03   -.300E+00 -.267E+00 -.721E+03   0.307E-01 0.206E-01 -.546E+00   0.950E-02 0.122E-01 0.567E-02
   0.472E+02 0.339E+02 -.176E+04   -.494E+02 -.355E+02 0.175E+04   0.218E+01 0.154E+01 0.425E+01   0.588E-03 -.591E-02 0.708E-02
   -.193E-01 -.221E-01 0.191E+04   0.251E-01 0.103E-01 -.190E+04   -.159E-04 -.101E-02 -.337E+01   -.554E-02 0.123E-01 -.150E-01
   0.309E-01 0.276E+00 -.466E+03   -.292E-01 -.280E+00 0.464E+03   -.402E-02 -.156E-02 0.129E+01   -.567E-02 -.317E-02 0.234E-01
   -.510E+00 0.515E+00 0.726E+03   0.529E+00 -.529E+00 -.726E+03   0.947E-02 -.109E-01 -.362E+00   -.182E-01 0.122E-01 0.102E-01
   -.565E+02 0.818E+02 -.168E+04   0.579E+02 -.838E+02 0.168E+04   -.141E+01 0.201E+01 0.218E+01   0.886E-02 0.344E-02 0.823E-02
   0.853E-02 0.225E-01 0.191E+04   -.806E-02 -.262E-01 -.190E+04   0.292E-03 -.533E-03 -.345E+01   -.675E-03 0.444E-02 -.125E-01
   -.139E+00 0.111E+00 -.468E+03   0.144E+00 -.120E+00 0.468E+03   -.555E-04 0.616E-02 0.834E-01   0.921E-03 0.622E-02 0.147E-01
   0.457E+00 -.442E+00 0.726E+03   -.463E+00 0.429E+00 -.726E+03   -.912E-02 0.110E-01 -.362E+00   0.502E-02 0.140E-01 -.130E-02
   0.575E+02 -.811E+02 -.168E+04   -.589E+02 0.831E+02 0.168E+04   0.143E+01 -.200E+01 0.217E+01   -.589E-02 -.163E-01 0.828E-02
   0.133E-03 0.215E-04 0.191E+04   -.465E-03 -.262E-03 -.190E+04   0.272E-03 0.161E-05 -.334E+01   0.167E-03 0.105E-03 -.106E-01
   -.186E-01 0.226E-01 -.499E+03   0.179E-01 -.216E-01 0.499E+03   0.132E-02 0.111E-03 0.498E+00   -.477E-03 -.119E-02 0.714E-02
   -.230E+00 -.224E+00 0.722E+03   0.275E+00 0.252E+00 -.721E+03   -.263E-01 -.192E-01 -.545E+00   0.437E-02 0.789E-02 -.356E-02
   -.479E+02 -.335E+02 -.176E+04   0.501E+02 0.351E+02 0.175E+04   -.217E+01 -.153E+01 0.423E+01   -.342E-02 -.115E-01 0.898E-02
   -.828E-02 -.220E-01 0.191E+04   0.788E-02 0.255E-01 -.190E+04   -.206E-03 0.322E-04 -.345E+01   0.825E-03 -.413E-02 -.126E-01
   0.157E+00 -.868E-01 -.468E+03   -.161E+00 0.979E-01 0.468E+03   -.659E-03 -.730E-02 0.836E-01   -.862E-03 -.745E-02 0.131E-01
   0.354E+00 -.698E+00 0.726E+03   -.357E+00 0.704E+00 -.726E+03   -.401E-02 0.135E-01 -.364E+00   -.740E-03 -.260E-02 0.165E-02
   0.579E+02 -.805E+02 -.168E+04   -.593E+02 0.825E+02 0.168E+04   0.143E+01 -.201E+01 0.218E+01   0.987E-02 -.795E-02 0.421E-02
   -.458E-03 -.220E-03 0.191E+04   0.717E-03 -.475E-03 -.190E+04   0.189E-03 0.120E-03 -.334E+01   -.251E-03 0.308E-03 -.106E-01
   0.299E-02 -.546E-02 -.500E+03   -.361E-02 0.551E-02 0.500E+03   0.303E-03 -.585E-04 0.481E+00   0.454E-03 -.816E-04 0.173E-01
   -.331E+00 -.206E+00 0.721E+03   0.389E+00 0.230E+00 -.721E+03   -.270E-01 -.200E-01 -.547E+00   -.696E-02 0.109E-01 -.717E-02
   -.486E+02 -.342E+02 -.176E+04   0.507E+02 0.357E+02 0.175E+04   -.215E+01 -.151E+01 0.421E+01   -.172E-02 -.124E-01 0.158E-01
   -.551E-01 -.408E+00 -.169E+04   0.665E-01 0.424E+00 0.171E+04   -.130E-01 -.369E-01 -.230E+02   0.317E-02 0.213E-01 0.832E-02
   -.553E+00 -.765E+00 -.169E+04   0.616E+00 0.817E+00 0.171E+04   -.563E-01 -.476E-01 -.229E+02   -.667E-02 0.257E-02 0.968E-02
   0.619E+00 0.736E+00 -.169E+04   -.685E+00 -.784E+00 0.171E+04   0.576E-01 0.443E-01 -.229E+02   0.802E-02 -.460E-02 0.984E-02
   -.217E+00 0.229E+00 -.169E+04   0.232E+00 -.218E+00 0.171E+04   -.138E-01 0.132E-01 -.230E+02   -.236E-02 -.230E-01 0.610E-02
   0.523E-01 0.477E-01 0.920E+02   -.506E-12 0.485E-12 0.227E-12   -.469E-01 -.544E-01 -.924E+02   0.158E-02 -.298E-02 0.395E+00

 POSITION                                       TOTAL-FORCE (eV/Angst)
      1.40594      1.52230      2.00000        -0.000151      0.000452      0.335528
      1.40398      1.52099      6.03172         0.010466      0.003023     -0.001791
      2.23340      0.35210      4.02685        -0.023639     -0.017629     -0.291459
      2.27528      0.38078      8.02442         0.006299      0.006480     -0.005196
      3.88832      1.52230      2.00000        -0.000007      0.000351      0.296822
      3.88736      1.52117      5.98657         0.005183      0.010838      0.000131
      4.71578      0.35210      4.02685         0.009090     -0.010847     -0.396197
      4.77920      0.26400      7.95756        -0.011274      0.003044      0.014295
      6.37069      1.52230      2.00000         0.000390     -0.000351      0.336090
      6.36970      1.52319      6.03378         0.003553      0.000107     -0.011866
      7.19815      0.35210      4.02685        -0.024366     -0.015106     -0.284229
      7.24040      0.38385      8.02645         0.006618      0.003279     -0.012250
      8.85307      1.52230      2.00000        -0.000023      0.000280      0.295237
      8.85131      1.52148      5.98541         0.008861      0.008127      0.010476
      9.68053      0.35210      4.02685         0.007422     -0.016423     -0.396397
      9.74366      0.26147      7.95505        -0.006760      0.005714      0.025968
      2.23340      3.86271      2.00000        -0.000248      0.000326      0.361569
      2.23216      3.86178      5.99285         0.010877      0.000711     -0.006171
      3.06086      2.69251      4.02685        -0.008112      0.010442     -0.397348
      2.99680      2.77948      7.95478         0.004457      0.000570      0.024935
      4.71578      3.86271      2.00000         0.000014      0.000033      0.336345
      4.71559      3.86268      6.03319         0.000204      0.000016     -0.012049
      5.54324      2.69251      4.02685         0.020905      0.016603     -0.286151
      5.49992      2.66451      8.02623        -0.009798     -0.009963     -0.014537
      7.19815      3.86271      2.00000         0.000330     -0.000365      0.361653
      7.19911      3.86365      5.99277        -0.010710     -0.000131     -0.005964
      8.02561      2.69251      4.02685        -0.010645      0.012450     -0.399048
      7.96121      2.78367      7.95544         0.011426     -0.009839      0.024172
      9.68053      3.86271      2.00000         0.000095     -0.000115      0.335470
      9.68036      3.86272      6.03257         0.000110     -0.000045     -0.010585
     10.50799      2.69251      4.02685         0.020303      0.014996     -0.292160
     10.46432      2.66093      8.02284        -0.009686     -0.003658     -0.002489
      3.06086      6.20311      2.00000        -0.000411      0.000478      0.336064
      3.06153      6.20221      6.03382        -0.003280     -0.000104     -0.011913
      3.88832      5.03291      4.02685        -0.021404     -0.016800     -0.285852
      3.93093      5.06065      8.02637         0.009202      0.010355     -0.014047
      5.54324      6.20311      2.00000         0.000106     -0.000353      0.296785
      5.54389      6.20421      5.98658        -0.004698     -0.010769      0.000140
      6.37069      5.03291      4.02685         0.007646     -0.010282     -0.397634
      6.43410      4.94586      7.95482        -0.003579     -0.001422      0.024070
      8.02561      6.20311      2.00000         0.000110     -0.000335      0.335534
      8.02726      6.20440      6.03166        -0.010189     -0.002929     -0.001668
      8.85307      5.03291      4.02685        -0.020796     -0.015062     -0.292227
      8.89604      5.06469      8.02292         0.009561      0.003872     -0.002204
     10.50799      6.20311      2.00000         0.000118     -0.000336      0.295259
     10.50939      6.20394      5.98541        -0.008105     -0.008483      0.010489
     11.33544      5.03291      4.02685         0.010265     -0.012410     -0.398819
     11.39924      4.94194      7.95541        -0.011300      0.009442      0.023219
      3.88832      8.54352      2.00000        -0.000005      0.000436      0.361306
      3.88745      8.54203      5.99387         0.006243      0.003514     -0.010485
      4.71578      7.37332      4.02685        -0.009576      0.011056     -0.395877
      4.65167      7.46131      7.95756         0.012063     -0.003840      0.015298
      6.37069      8.54352      2.00000         0.000004      0.000009      0.335805
      6.37050      8.54348      6.03242         0.000095      0.000097     -0.004095
      7.19815      7.37332      4.02685         0.023150      0.017475     -0.291796
      7.15548      7.34439      8.02430        -0.006586     -0.005972     -0.005651
      8.85307      8.54352      2.00000         0.000110     -0.000493      0.361383
      8.85363      8.54505      5.99381        -0.006021     -0.003502     -0.010688
      9.68053      7.37332      4.02685        -0.007830      0.016498     -0.396523
      9.61669      7.46416      7.95510         0.007227     -0.006275      0.026438
     11.33544      8.54352      2.00000         0.000093     -0.000124      0.336068
     11.33525      8.54354      6.03436         0.000034      0.000055     -0.016985
     12.16290      7.37332      4.02685         0.023803      0.015059     -0.284126
     12.11983      7.34183      8.02633        -0.006741     -0.003301     -0.012475
      3.88269      1.51905      8.98443         0.001489      0.000427      0.035833
      8.84719      1.51805      8.98091        -0.000237      0.007276      0.036656
     10.51328      6.20740      8.98085        -0.000235     -0.007318      0.036483
      5.54407      6.20319      8.98453        -0.001513      0.000687      0.033431
    total drift:                                0.007052     -0.009703     -0.017395

  FREE ENERGIE OF THE ION-ELECTRON SYSTEM (eV)
  free  energy   TOTEN  =      -545.63558085 eV

  energy  without entropy=     -545.71513025  energy(sigma->0) =     -545.66209732

 d Force = 0.1418743E-02[ 0.948E-03, 0.189E-02]  d Energy =-0.1240885E-03 0.154E-02
 d Force = 0.2262254E+02[ 0.226E+02, 0.226E+02]  d Ewald  = 0.2262255E+02-0.849E-05

 stress matrix after NEB project (eV)
    -44.82916     -2.31622      0.00665
     -2.31622    -43.18116      0.00022
      0.00665      0.00022    -10.04790
  FORCES: max atom, RMS     0.037372    0.014576
  FORCE total and by dimension    0.120200    0.036656
  Stress total and by dimension   63.134432   44.829159
 Steepest descent step on ions:
 trial-energy change:    0.000124  1 .order   -0.001419   -0.001890   -0.000948
  (g-gl).g = 0.189E-02      g.g   = 0.189E-02  gl.gl    = 0.000E+00
 g(Force)  = 0.189E-02   g(Stress)= 0.000E+00 ortho     = 0.000E+00
 gamma     =   0.00000
 trial     =   1.00000
 opt step  =   2.00552  (harmonic =   2.00552) maximal distance =0.00752605
 next E    =  -545.637600   (d E  =  -0.00190)

 reached required accuracy - stopping structural energy minimisation
 writing wavefunctions

 total charge

[...]

 magnetization (x)

# of ion       s       p       d       tot
    1       -0.004  -0.014   2.677   2.659
    2       -0.015  -0.057   2.476   2.404
    3       -0.016  -0.057   2.485   2.412
    4       -0.010  -0.018   2.706   2.677
    5       -0.005  -0.015   2.687   2.668
    6       -0.018  -0.059   2.473   2.397
    7       -0.016  -0.059   2.441   2.366
    8       -0.003  -0.027   2.298   2.268
    9       -0.004  -0.014   2.677   2.659
   10       -0.015  -0.057   2.477   2.406
   11       -0.016  -0.057   2.486   2.414
   12       -0.010  -0.018   2.705   2.677
   13       -0.005  -0.015   2.688   2.668
   14       -0.018  -0.059   2.473   2.396
   15       -0.016  -0.059   2.441   2.366
   16       -0.003  -0.027   2.297   2.267
   17       -0.006  -0.015   2.667   2.646
   18       -0.012  -0.058   2.256   2.186
   19       -0.016  -0.059   2.441   2.367
   20       -0.003  -0.027   2.296   2.266
   21       -0.004  -0.014   2.677   2.659
   22       -0.015  -0.057   2.479   2.407
   23       -0.016  -0.057   2.485   2.413
   24       -0.010  -0.018   2.711   2.683
   25       -0.006  -0.015   2.667   2.646
   26       -0.012  -0.058   2.256   2.186
   27       -0.016  -0.059   2.441   2.366
   28       -0.003  -0.027   2.298   2.269
   29       -0.004  -0.014   2.677   2.659
   30       -0.015  -0.057   2.475   2.404
   31       -0.016  -0.057   2.485   2.412
   32       -0.010  -0.018   2.709   2.680
   33       -0.004  -0.014   2.677   2.659
   34       -0.015  -0.057   2.477   2.406
   35       -0.016  -0.057   2.485   2.413
   36       -0.010  -0.018   2.710   2.681
   37       -0.005  -0.015   2.687   2.668
   38       -0.018  -0.059   2.473   2.397
   39       -0.016  -0.059   2.441   2.366
   40       -0.003  -0.027   2.296   2.266
   41       -0.004  -0.014   2.677   2.659
   42       -0.015  -0.057   2.475   2.404
   43       -0.016  -0.057   2.485   2.412
   44       -0.010  -0.018   2.709   2.680
   45       -0.005  -0.015   2.688   2.668
   46       -0.018  -0.059   2.473   2.396
   47       -0.016  -0.059   2.441   2.366
   48       -0.003  -0.027   2.298   2.268
   49       -0.006  -0.015   2.667   2.647
   50       -0.012  -0.058   2.256   2.186
   51       -0.016  -0.059   2.441   2.366
   52       -0.003  -0.027   2.298   2.268
   53       -0.004  -0.014   2.677   2.659
   54       -0.015  -0.057   2.475   2.404
   55       -0.016  -0.057   2.485   2.412
   56       -0.010  -0.018   2.708   2.679
   57       -0.006  -0.015   2.667   2.647
   58       -0.012  -0.058   2.256   2.186
   59       -0.016  -0.059   2.441   2.366
   60       -0.003  -0.027   2.297   2.267
   61       -0.004  -0.014   2.677   2.659
   62       -0.015  -0.057   2.476   2.405
   63       -0.016  -0.057   2.486   2.414
   64       -0.010  -0.018   2.705   2.677
   65        0.004   0.044   0.000   0.048
   66        0.004   0.043   0.000   0.048
   67        0.004   0.043   0.000   0.048
   68        0.004   0.044   0.000   0.048
tot         -0.656  -2.261 161.013 158.096