 vasp.5.4.4.18Apr17-6-g9f103f2a35 (build Dec 15 2018 21:27:11) complex

 executed on             LinuxIFC date 2022.03.01  22:29:13

 INCAR:
 POTCAR:    PAW_PBE Ni 02Aug2007
 POTCAR:    PAW_PBE Fe 06Sep2000
 POTCAR:    PAW_PBE O 08Apr2002
 POTCAR:    PAW_PBE H 15Jun2001

 POTCAR:    PAW_PBE Ni 02Aug2007
   VRHFIN =Ni:

   TITEL  = PAW_PBE Ni 02Aug2007
   POMASS =   58.690; ZVAL   =   10.000    mass and valenz
   ENMAX  =  269.532; ENMIN  =  202.149 eV

 POTCAR:    PAW_PBE Fe 06Sep2000
   VRHFIN =Fe:  d7 s1

   TITEL  = PAW_PBE Fe 06Sep2000
   POMASS =   55.847; ZVAL   =    8.000    mass and valenz
   ENMAX  =  267.882; ENMIN  =  200.911 eV

 POTCAR:    PAW_PBE O 08Apr2002
   VRHFIN =O: s2p4

   TITEL  = PAW_PBE O 08Apr2002
   POMASS =   16.000; ZVAL   =    6.000    mass and valenz
   ENMAX  =  400.000; ENMIN  =  300.000 eV

 POTCAR:    PAW_PBE H 15Jun2001
   VRHFIN =H: ultrasoft test

   TITEL  = PAW_PBE H 15Jun2001
   POMASS =    1.000; ZVAL   =    1.000    mass and valenz
   ENMAX  =  250.000; ENMIN  =  200.000 eV

 Optimization of the real space projectors (new method)

 maximal supplied QI-value         = 16.25
 optimisation between [QCUT,QGAM] = [ 11.54, 23.24] = [ 37.28,151.24] Ry
 Optimized for a Real-space Cutoff    1.45 Angstroem

   l    n(q)    QCUT    max X(q) W(low)/X(q) W(high)/X(q)  e(spline)
   2      9    11.539    60.317    0.19E-03    0.47E-04    0.16E-06
   2      9    11.539    55.921    0.19E-03    0.48E-04    0.16E-06
   0     10    11.539    51.690    0.80E-04    0.50E-04    0.24E-06
   0     10    11.539    30.015    0.73E-04    0.45E-04    0.22E-06
   1     10    11.539    18.849    0.87E-04    0.16E-03    0.71E-07
   1     10    11.539    14.624    0.73E-04    0.13E-03    0.64E-07
 Optimization of the real space projectors (new method)

[...]

   l    n(q)    QCUT    max X(q) W(low)/X(q) W(high)/X(q)  e(spline)
   0      8    11.635    20.381    0.10E-03    0.33E-03    0.24E-06
   0      8    11.635    15.268    0.11E-03    0.35E-03    0.26E-06
   1      7    11.635     5.964    0.24E-03    0.31E-03    0.30E-06
   1      7    11.635     5.382    0.22E-03    0.25E-03    0.26E-06
 Optimization of the real space projectors (new method)

 maximal supplied QI-value         = 34.20
 optimisation between [QCUT,QGAM] = [ 11.63, 23.26] = [ 37.87,151.49] Ry
 Optimized for a Real-space Cutoff    1.21 Angstroem

   l    n(q)    QCUT    max X(q) W(low)/X(q) W(high)/X(q)  e(spline)
   0      8    11.629    19.460    0.17E-03    0.34E-03    0.21E-06
   0      8    11.629    12.209    0.16E-03    0.33E-03    0.21E-06
   1      8    11.629     4.655    0.18E-03    0.16E-03    0.26E-06
  PAW_PBE Ni 02Aug2007                  :
  PAW_PBE Fe 06Sep2000                  :
  PAW_PBE O 08Apr2002                   :
  PAW_PBE H 15Jun2001                   :

 POSCAR: POSCAR
  positions in direct lattice
  velocities in cartesian coordinates
 exchange correlation table for  LEXCH =        8
   RHO(1)=    0.500       N(1)  =     2000
   RHO(2)=  100.500       N(2)  =     4000

 VTST: version 3.2, (02/03/18)

 CHAIN: initializing optimizer

 OPT: Using VASP Conjugate-Gradient optimizer
 CHAIN: Read ICHAIN            0

 POSCAR: POSCAR
  positions in direct lattice
  velocities in cartesian coordinates

 ion  position               nearest neighbor table
   1  0.999  0.001  0.191-  35 2.44  59 2.48  23 2.50  32 2.50   5 2.52  40 2.52  37 2.52   2 2.53
                             4 2.53  21 2.54  34 2.54  62 2.59
   2  0.248  0.999  0.192-  59 2.46  50 2.47  36 2.48   6 2.49  37 2.50   3 2.51  28 2.52   5 2.52
                            60 2.53  21 2.53   1 2.53   8 2.56
   3  0.499  0.002  0.192-  39 2.46  36 2.49  30 2.50  60 2.50  34 2.51   2 2.51   8 2.52  11 2.52
                             7 2.53  50 2.54  51 2.54  61 2.57
   4  0.998  0.251  0.192-  35 2.46  42 2.49  19 2.50  34 2.50  43 2.50  13 2.50   7 2.53   1 2.53
                            40 2.53  10 2.54   5 2.55  46 2.55
   5  0.249  0.249  0.191-  36 2.48  45 2.49  35 2.50  37 2.50  46 2.50   6 2.51   1 2.52  42 2.52
                             2 2.52  16 2.54   4 2.55  44 2.55
   6  0.331  0.165  0.287-  17 2.46  38 2.47   9 2.47  36 2.48   2 2.49   5 2.51  59 2.52  45 2.53
                            60 2.54  15 2.56  39 2.56  35 2.56
   7  0.749  0.253  0.193-  39 2.43  18 2.47  14 2.49  48 2.49  13 2.51  34 2.51  10 2.52   4 2.53
                             3 2.53  11 2.54  36 2.55  19 2.55
   8  0.418  0.084  0.094-  37 2.49  36 2.51  16 2.51   3 2.52  11 2.52  30 2.53  28 2.53  48 2.56
                             2 2.56
   9  0.416  0.086  0.383-  68 1.83  38 2.43  17 2.46   6 2.47  60 2.51  49 2.53  12 2.53  29 2.53
                            39 2.54  31 2.55
  10  0.831  0.166  0.290-  41 2.44  12 2.46  39 2.48  20 2.49  34 2.49  35 2.51  43 2.51   7 2.52
                            18 2.53  62 2.53   4 2.54  61 2.55
  11  0.668  0.085  0.096-  34 2.51  40 2.51  48 2.51   8 2.52   3 2.52  19 2.53  30 2.54  63 2.54
                             7 2.54
  12  0.667  0.087  0.383-  68 1.85  10 2.46  20 2.48  41 2.49  39 2.51  49 2.52   9 2.53  61 2.54
                            64 2.56  31 2.57
  13  0.999  0.499  0.193-  43 2.45  22 2.47  18 2.50  53 2.50   4 2.50  42 2.51   7 2.51  19 2.52
                            50 2.52  21 2.53  14 2.53  26 2.55
  14  0.748  0.499  0.192-  15 2.47  44 2.48   7 2.49  18 2.49  48 2.49  56 2.49  57 2.52  26 2.52
                            21 2.52  23 2.53  13 2.53  36 2.57
  15  0.583  0.419  0.287-  49 2.44  56 2.46  44 2.47  14 2.47  45 2.49  18 2.50  17 2.51  36 2.52
                             6 2.56  55 2.56  39 2.56  58 2.62
  16  0.420  0.333  0.094-  36 2.51   8 2.51  37 2.52  57 2.52  44 2.52  46 2.53  24 2.54  48 2.54
                             5 2.54
  17  0.414  0.329  0.381-  66 1.85  38 2.43   6 2.46   9 2.46  45 2.50  15 2.51  49 2.52  47 2.53
                            25 2.56  58 2.59
  18  0.830  0.416  0.288-  49 2.41   7 2.47  56 2.48  43 2.48  14 2.49  13 2.50  39 2.50  15 2.50
                            27 2.53  10 2.53  22 2.54  20 2.54
  19  0.919  0.335  0.096-  48 2.49   4 2.50  40 2.51  53 2.51  13 2.52  11 2.53  26 2.54  46 2.54
                             7 2.55
  20  0.913  0.331  0.385-  67 1.86  41 2.47  12 2.48  10 2.49  43 2.51  49 2.53  18 2.54  47 2.54
                            27 2.59  54 2.60
  21  0.998  0.749  0.193-  59 2.45  50 2.48  23 2.48  22 2.49  32 2.50  56 2.51  26 2.52  14 2.52
                             2 2.53  13 2.53   1 2.54  28 2.55
  22  0.083  0.666  0.287-  29 2.43  50 2.44  13 2.47  43 2.47  21 2.49  54 2.52  60 2.52  18 2.54
                            59 2.54  56 2.55  27 2.56  52 2.64
  23  0.753  0.752  0.192-  62 2.47  21 2.48  63 2.49   1 2.50  32 2.51  56 2.51  57 2.52  14 2.53
                            55 2.53  44 2.54  51 2.57  34 2.58
  24  0.417  0.584  0.096-  46 2.49  44 2.50  51 2.51  57 2.52  30 2.52  63 2.53  16 2.54  42 2.56
                            53 2.57
  25  0.411  0.581  0.383-  66 1.89  52 2.42  54 2.48  47 2.51  45 2.52  55 2.52  31 2.53  17 2.56
                            58 2.56  64 2.56
  26  0.916  0.585  0.095-  48 2.48  32 2.48  57 2.50  53 2.51  21 2.52  14 2.52  28 2.53  19 2.54
                            13 2.55
  27  0.910  0.586  0.384-  67 1.89  58 2.45  56 2.46  33 2.48  49 2.49  18 2.53  29 2.56  22 2.56
                            20 2.59  54 2.61
  28  0.167  0.835  0.095-  32 2.48  37 2.49  53 2.50   2 2.52  50 2.53   8 2.53  26 2.53  30 2.54
                            21 2.55
  29  0.164  0.836  0.377-  60 2.41  59 2.42  22 2.43  38 2.47  33 2.50  54 2.52   9 2.53  31 2.54
                            27 2.56
  30  0.417  0.833  0.097-  51 2.49   3 2.50  53 2.52  24 2.52   8 2.53  11 2.54  28 2.54  63 2.54
                            50 2.55
  31  0.413  0.832  0.385-  68 1.86  54 2.45  52 2.48  60 2.50  61 2.53  25 2.53  29 2.54  64 2.54
                             9 2.55  12 2.57
  32  0.920  0.833  0.095-  28 2.48  26 2.48   1 2.50  21 2.50  23 2.51  57 2.53  37 2.54  63 2.54
                            40 2.57
  33  0.916  0.834  0.381-  65 1.95  56 2.48  27 2.48  62 2.49  59 2.49  29 2.50  58 2.51  64 2.53
                            41 2.57  38 2.58
  34  0.749  0.005  0.193-  62 2.47  10 2.49   4 2.50  61 2.50  11 2.51   7 2.51   3 2.51  63 2.54
                             1 2.54  51 2.55  40 2.57  23 2.58
  35  0.076  0.161  0.285-   1 2.44   4 2.46  47 2.47  59 2.49   5 2.50  10 2.51  41 2.53   6 2.56
                            62 2.56  43 2.59  38 2.61  45 2.61
  36  0.493  0.245  0.192-   6 2.48   5 2.48   2 2.48   3 2.49  39 2.50  16 2.51   8 2.51  44 2.52
                            15 2.52   7 2.55  14 2.57  48 2.57
  37  0.171  0.083  0.095-  28 2.49   8 2.49   2 2.50   5 2.50  16 2.52   1 2.52  32 2.54  46 2.57
                            40 2.58
  38  0.175  0.085  0.384-  65 1.84   9 2.43  17 2.43   6 2.47  29 2.47  47 2.54  59 2.57  33 2.58
                            35 2.61  41 2.65
  39  0.586  0.166  0.286-   7 2.43   3 2.46  49 2.48  10 2.48  18 2.50  36 2.50  12 2.51   9 2.54
                            60 2.55   6 2.56  15 2.56  61 2.57
  40  0.917  0.086  0.094-  19 2.51  11 2.51   1 2.52  63 2.53   4 2.53  46 2.55  34 2.57  32 2.57
                            37 2.58
  41  0.913  0.087  0.383-  65 1.85  10 2.44  20 2.47  12 2.49  47 2.50  35 2.53  64 2.54  62 2.56
                            33 2.57  38 2.65
  42  0.246  0.497  0.194-  45 2.46  43 2.49   4 2.49  13 2.51  46 2.51   5 2.52  53 2.54  52 2.55
                            51 2.55  24 2.56  44 2.58  50 2.59
  43  0.076  0.417  0.288-  47 2.43  13 2.45  22 2.47  18 2.48  42 2.49   4 2.50  10 2.51  20 2.51
                            54 2.55  35 2.59  45 2.62  52 2.67
  44  0.503  0.500  0.191-  15 2.47  14 2.48  45 2.49  57 2.49  24 2.50  36 2.52  16 2.52  23 2.54
                             5 2.55  51 2.55  55 2.56  42 2.58
  45  0.336  0.417  0.286-  47 2.45  42 2.46  44 2.49   5 2.49  15 2.49  17 2.50  25 2.52   6 2.53
                            52 2.53  55 2.55  35 2.61  43 2.62
  46  0.171  0.337  0.096-  24 2.49   5 2.50  42 2.51  16 2.53  19 2.54   4 2.55  53 2.55  40 2.55
                            37 2.57
  47  0.164  0.331  0.377-  43 2.43  45 2.45  35 2.47  41 2.50  25 2.51  17 2.53  20 2.54  38 2.54
                            54 2.59
  48  0.673  0.336  0.096-  26 2.48  19 2.49  14 2.49   7 2.49  11 2.51  57 2.53  16 2.54   8 2.56
                            36 2.57
  49  0.666  0.336  0.379-  18 2.41  15 2.44  39 2.48  27 2.49  17 2.52  12 2.52  20 2.53   9 2.53
                            58 2.53
  50  0.245  0.753  0.193-  22 2.44  60 2.46   2 2.47  21 2.48  53 2.51  13 2.52  28 2.53   3 2.54
                            30 2.55  51 2.57  52 2.59  42 2.59
  51  0.498  0.750  0.193-  52 2.43  61 2.48  55 2.48  30 2.49  24 2.51  63 2.52   3 2.54  44 2.55
                            34 2.55  42 2.55  23 2.57  50 2.57
  52  0.348  0.673  0.289-  61 2.38  55 2.39  25 2.42  51 2.43  31 2.48  60 2.51  45 2.53  42 2.55
                            54 2.56  50 2.59  22 2.64  43 2.67
[...]
   0.131E+03 -.716E+01 0.102E+04   -.131E+03 0.706E+01 -.102E+04   0.403E-01 0.419E-01 -.301E+00   0.366E-01 -.814E-02 -.156E-01
   0.123E+02 -.541E+01 0.274E+04   -.123E+02 0.538E+01 -.273E+04   -.263E-02 0.121E+00 -.125E+01   0.105E-01 -.860E-02 -.220E-01
   0.144E+03 -.519E+01 -.239E+04   -.147E+03 0.622E+01 0.239E+04   0.240E+01 -.101E+01 0.748E+00   0.967E-01 -.228E-01 0.254E-01
   0.255E+01 0.273E+02 0.286E+04   -.277E+01 -.273E+02 -.286E+04   0.236E+00 0.136E+00 -.904E+00   -.890E-02 0.668E-02 0.501E-02
   0.986E+02 -.513E+02 -.253E+04   -.100E+03 0.525E+02 0.252E+04   0.193E+01 -.119E+01 0.786E+00   -.528E-01 0.626E-02 -.331E-01
   -.360E+02 0.151E+02 0.284E+04   0.363E+02 -.153E+02 -.284E+04   -.207E+00 0.149E-02 -.125E+01   -.155E-01 0.840E-02 -.291E-02
   0.356E+01 -.410E+01 -.248E+04   -.367E+01 0.399E+01 0.248E+04   0.158E+00 0.693E-01 0.291E+01   -.330E-01 0.349E-01 -.367E-01
   -.536E+02 0.748E+02 0.276E+04   0.537E+02 -.750E+02 -.276E+04   -.678E-01 0.279E+00 -.143E+01   -.128E-01 0.171E-01 -.236E-01
   0.133E+02 0.178E+03 -.243E+04   -.137E+02 -.181E+03 0.243E+04   0.382E+00 0.214E+01 0.667E+00   0.182E-01 0.787E-01 0.119E-01
   0.929E+02 -.477E+02 0.285E+04   -.934E+02 0.480E+02 -.285E+04   0.303E+00 -.241E+00 -.527E+00   0.114E-01 -.228E-02 0.563E-02
   0.529E+01 0.549E+02 -.237E+04   -.464E+01 -.577E+02 0.236E+04   -.659E+00 0.282E+01 0.143E+01   0.298E-01 -.153E-01 -.467E-01
   -.109E+02 0.709E+02 0.815E+03   0.110E+02 -.710E+02 -.815E+03   -.483E-02 0.105E-01 0.133E+00   0.904E-02 0.929E-02 -.210E-01
   -.294E+01 -.206E+02 -.603E+03   0.302E+01 0.209E+02 0.603E+03   -.114E+00 -.290E+00 -.483E-01   0.374E-01 -.141E-01 -.445E-01
   0.126E+02 -.366E+02 0.841E+03   -.126E+02 0.368E+02 -.841E+03   -.120E+00 -.951E-01 -.369E+00   -.640E-03 -.970E-03 -.785E-02
   0.633E+02 -.476E+02 0.228E+04   -.637E+02 0.479E+02 -.228E+04   0.346E+00 -.393E+00 -.236E+01   0.501E-02 -.725E-02 0.598E-02
   -.135E+02 -.742E+02 -.198E+04   0.141E+02 0.746E+02 0.198E+04   -.610E+00 -.468E+00 0.183E+01   0.382E-01 0.158E-01 -.450E-01
   0.228E+02 0.452E+02 -.556E+03   -.230E+02 -.449E+02 0.556E+03   0.148E+00 -.245E+00 0.631E+00   0.183E-02 0.119E-01 -.438E-01
   -.188E+02 0.117E+02 0.227E+04   0.190E+02 -.117E+02 -.227E+04   -.198E+00 -.994E-01 -.290E+01   0.658E-02 -.392E-02 -.157E-02
   0.987E+01 -.748E+02 -.193E+04   -.106E+02 0.759E+02 0.193E+04   0.673E+00 -.110E+01 0.201E+01   0.172E-01 -.716E-03 -.111E-01
   -.481E+02 -.519E+02 0.780E+03   0.482E+02 0.521E+02 -.780E+03   -.436E-01 0.816E-02 -.287E+00   0.182E-02 -.461E-01 -.639E-01
   -.134E+03 -.204E+02 -.610E+03   0.135E+03 0.204E+02 0.610E+03   -.625E+00 0.861E-01 0.425E+00   -.277E-01 -.357E-01 -.594E-01
   0.709E+02 -.412E+02 0.831E+03   -.713E+02 0.412E+02 -.831E+03   0.206E+00 0.152E+00 -.252E+00   0.345E-01 -.217E-01 -.180E-01
   0.696E+02 -.399E+02 -.530E+03   -.703E+02 0.397E+02 0.529E+03   0.589E+00 0.194E+00 0.927E+00   0.639E-01 -.607E-01 -.462E-01
   0.265E+01 -.554E+01 0.225E+04   -.258E+01 0.531E+01 -.224E+04   -.442E-01 0.103E+00 -.281E+01   0.342E-02 -.114E-01 -.540E-02
   0.433E+01 0.518E+01 -.194E+04   -.455E+01 -.506E+01 0.194E+04   0.209E+00 -.917E-01 0.432E+01   0.243E-01 -.149E-01 -.404E-01
   0.431E+02 -.623E+01 0.226E+04   -.433E+02 0.616E+01 -.226E+04   0.152E+00 -.179E+00 -.255E+01   -.317E-02 0.185E-02 0.732E-02
   0.224E+02 -.698E+01 -.204E+04   -.222E+02 0.733E+01 0.203E+04   -.102E+00 -.356E+00 0.412E+01   -.819E-02 0.266E-02 -.438E-01
   -.110E+03 0.481E+02 0.783E+03   0.111E+03 -.484E+02 -.784E+03   -.203E+00 0.165E+00 -.224E+00   -.497E-01 0.285E-01 -.623E-01
   -.354E+01 0.386E+02 0.794E+03   0.349E+01 -.389E+02 -.795E+03   0.548E-01 0.131E+00 0.495E-01   0.389E-01 0.210E-01 -.616E-01
   0.469E+01 0.498E+02 -.540E+03   -.458E+01 -.497E+02 0.540E+03   -.141E+00 -.241E-01 -.714E+00   0.179E-01 0.744E-02 -.391E-01
   -.743E+02 0.217E+02 0.221E+04   0.748E+02 -.217E+02 -.221E+04   -.359E+00 0.156E+00 -.282E+01   -.151E-01 0.137E-02 -.160E-01
   -.128E+03 -.330E+01 -.198E+04   0.128E+03 0.374E+01 0.198E+04   -.784E+00 -.441E+00 0.117E+01   -.402E-01 0.102E-02 0.340E-01
   0.186E+02 0.439E+01 -.562E+03   -.190E+02 -.362E+01 0.561E+03   0.288E+00 -.764E+00 0.362E+00   0.979E-01 -.391E-02 -.396E-01
   0.707E+02 -.546E+02 -.616E+03   -.705E+02 0.546E+02 0.616E+03   -.237E+00 0.156E-01 -.714E+00   -.714E-03 -.498E-04 -.309E-01
   0.544E+02 -.244E+01 0.226E+04   -.546E+02 0.235E+01 -.226E+04   0.224E+00 0.164E+00 -.283E+01   0.136E-01 -.189E-02 0.368E-02
   -.866E+02 -.359E+02 -.199E+04   0.875E+02 0.359E+02 0.199E+04   -.962E+00 0.631E-01 0.198E+01   0.282E-01 0.206E-02 -.314E-01
   0.496E+02 -.318E+02 -.577E+03   -.496E+02 0.321E+02 0.576E+03   0.405E-02 -.355E+00 0.352E+00   0.166E-02 0.112E-01 -.343E-01
   -.434E+02 0.271E+02 -.558E+03   0.434E+02 -.272E+02 0.557E+03   0.692E-01 -.600E-01 0.816E+00   -.303E-01 0.657E-01 -.466E-01
   -.111E+02 0.379E+02 -.557E+03   0.116E+02 -.385E+02 0.557E+03   -.578E+00 0.579E+00 0.285E+00   0.394E-01 0.602E-01 -.343E-01
   0.225E+00 -.189E+01 -.589E+03   -.785E+00 0.155E+01 0.588E+03   0.529E+00 0.353E+00 0.347E+00   0.412E-01 -.103E-01 -.356E-01
   0.203E+01 0.473E+01 0.221E+04   -.215E+01 -.465E+01 -.221E+04   -.169E+00 0.668E-01 -.279E+01   0.138E-01 0.367E-02 -.100E-01
   0.187E+01 0.563E+01 -.187E+04   -.106E+01 -.530E+01 0.188E+04   -.851E+00 -.314E+00 -.114E+01   0.513E-01 0.130E-02 -.120E-01
   -.396E+02 -.647E+02 -.195E+04   0.398E+02 0.626E+02 0.198E+04   -.199E+00 0.208E+01 -.252E+02   -.991E-02 -.147E-01 -.240E-02
   0.442E+01 0.411E+02 -.200E+04   -.711E+01 -.417E+02 0.203E+04   0.265E+01 0.540E+00 -.277E+02   0.254E-01 -.705E-02 0.252E-02
   -.418E+02 -.841E+01 -.202E+04   0.402E+02 0.836E+01 0.205E+04   0.167E+01 0.695E-01 -.267E+02   -.279E-01 -.312E-02 0.218E-01
   0.307E+02 -.184E+02 -.204E+04   -.301E+02 0.178E+02 0.207E+04   -.563E+00 0.496E+00 -.281E+02   -.152E-02 0.107E-01 0.719E-02
   0.269E+02 0.256E+02 -.192E+04   -.546E+02 -.456E+02 0.193E+04   0.277E+02 0.201E+02 -.533E+01   -.328E-01 -.224E-01 0.385E-01
   -.570E+02 -.393E+02 -.339E+03   0.631E+02 0.435E+02 0.342E+03   -.611E+01 -.418E+01 -.346E+01   -.593E-03 -.955E-03 0.281E-02
   -.264E+02 -.211E+02 0.123E+03   0.853E-13 -.341E-12 -.153E-11   0.261E+02 0.210E+02 -.122E+03   0.291E+00 0.174E+00 -.159E+01

 POSITION                                       TOTAL-FORCE (eV/Angst)
     10.08740      0.00562      4.04934        -0.027505      0.028103     -0.263712
     -2.53339      8.73512      4.08190        -0.019664      0.019851     -0.071693
      5.03058      0.01686      4.07661         0.048494     -0.121720     -0.113125
      8.81557      2.19268      4.07950        -0.077073     -0.068284     -0.178996
      1.26036      2.17683      4.06343        -0.199548     -0.052717     -0.072845
      2.52334      1.43996      6.10543         0.000836      0.001444      0.002278
      6.28789      2.21111      4.10570         0.140785     -0.034997     -0.332319
      3.80181      0.73423      2.00037         0.093492      0.011644      0.470763
      3.77296      0.74908      8.12225         0.002333      0.006840      0.004108
      7.55692      1.45470      6.15314         0.012449     -0.002374      0.016478
      6.31884      0.74108      2.03384         0.006782     -0.068203      0.430365
      6.29953      0.75885      8.15292         0.017373      0.006742     -0.008434
      7.57051      4.36576      4.10283         0.022058      0.104638     -0.421474
      5.03817      4.36229      4.08171        -0.026220     -0.013884     -0.191328
      3.77927      3.66238      6.08638         0.006645      0.008768     -0.000480
      2.55462      2.91604      2.00083         0.069272      0.104889      0.384725
      2.52014      2.88373      8.10114         0.004906     -0.009242     -0.002943
      6.28216      3.64071      6.10900         0.003698      0.009387      0.004476
      7.58585      2.93043      2.03371         0.131316      0.033031      0.446383
      7.55236      2.90389      8.17257         0.008091     -0.003584     -0.001698
      6.29425      6.55133      4.09263         0.040819     -0.034822     -0.203654
     -2.52626      5.82341      6.09880         0.008764     -0.003203      0.007801
      3.81389      6.57546      4.07284        -0.254974     -0.065235     -0.067174
      1.26871      5.10416      2.04534        -0.023447      0.088275      0.265525
      1.22348      5.08248      8.13882        -0.000456     -0.001493     -0.008301
      6.29450      5.11374      2.02823        -0.009290      0.080141      0.398530
      6.22814      5.12499      8.16362         0.005201     -0.002244      0.002017
     -2.53139      7.30304      2.00991         0.031721     -0.138350      0.327761
     -2.55941      7.31547      8.01641         0.007052      0.002625     -0.003278
      0.00464      7.28975      2.05722         0.050943      0.057967      0.293496
     -0.02781      7.27864      8.18349         0.008715      0.009779     -0.002882
      5.08583      7.28318      2.02757        -0.173166      0.058695      0.344361
      5.03956      7.29682      8.08914         0.010253      0.005418     -0.008804
      7.54405      0.03969      4.10439         0.146327     -0.081326     -0.288034
     -0.03879      1.40587      6.04549        -0.001561      0.000626      0.009261
      3.74186      2.14689      4.07389        -0.098864      0.059867     -0.432706
      1.31001      0.72945      2.02674        -0.014524     -0.018410      0.246040
      1.33917      0.75024      8.16105         0.015567      0.008565     -0.009489
      5.08007      1.45779      6.06839         0.013941     -0.013037      0.006824
      8.82791      0.75063      2.00000        -0.010873     -0.081146      0.107827
      8.78672      0.76680      8.14953        -0.022141      0.023834     -0.026077
     -0.02406      4.34464      4.11684         0.045668      0.202855     -0.311647
     -1.33556      3.65372      6.10571         0.003542      0.004325      0.007915
      2.55702      4.37025      4.05869        -0.104335      0.119914     -0.248735
      1.29026      3.64501      6.06572         0.003866      0.009596      0.005714
      0.02215      2.94990      2.02984         0.029731     -0.146316      0.041836
     -0.01496      2.89954      8.00639         0.006148      0.012365     -0.015167
      5.09719      2.93887      2.04043        -0.072594     -0.230117      0.036050
      5.03280      2.93653      8.05280         0.002956      0.002806     -0.007016
     -1.32764      6.58396      4.11125         0.067702     -0.097989     -0.354951
      1.24700      6.55932      4.09363         0.048547     -0.120114     -0.417270
      0.11814      5.88363      6.13593         0.005921      0.002138      0.008548
     -1.29718      5.12819      2.06865         0.105268      0.087731      0.194185
     -1.25892      5.16190      8.17715        -0.018355     -0.002480      0.010282
      2.50444      5.87926      6.11757         0.003056      0.009449      0.003989
      5.03092      5.78441      6.12496        -0.003777      0.003862     -0.000239
      3.79261      5.11061      2.02334         0.043398      0.069537     -0.004232
      3.77533      5.13403      8.26361         0.017940      0.002352      0.000061
     -3.80351      8.01499      6.05238        -0.001125      0.004535      0.010741
     -1.24473      7.99611      6.11745         0.015689     -0.006063      0.003854
      1.29420      7.96190      6.13264         0.004381     -0.003381      0.013359
      3.68429      7.96243      6.11035         0.003929     -0.001834      0.005169
      2.54183      7.29082      2.05307        -0.262936      0.148331      0.017165
      2.51401      7.28760      8.29261         0.012532      0.008904      0.027195
      0.00575      0.10821      9.26312         0.038024     -0.004662      0.017982
      2.50772      4.30274      9.29118        -0.000286     -0.000891     -0.011806
     -2.52029      4.40910      9.26961         0.010330      0.013285     -0.023514
      5.01623      0.03721      9.27025        -0.001870     -0.003099     -0.023615
      2.70284      7.25391     10.07862         0.030893      0.015648     -0.030116
      3.43806      7.75866     10.47882         0.017226     -0.017547     -0.015306
    total drift:                                0.017508      0.008470     -0.008330

  FREE ENERGIE OF THE ION-ELECTRON SYSTEM (eV)
  free  energy   TOTEN  =      -470.41569150 eV

  energy  without entropy=     -470.48737984  energy(sigma->0) =     -470.43958761

 d Force = 0.3340234E-03[ 0.303E-03, 0.365E-03]  d Energy = 0.3665939E-03-0.326E-04
 d Force =-0.1512176E+02[-0.151E+02,-0.151E+02]  d Ewald  =-0.1512176E+02-0.119E-05

 stress matrix after NEB project (eV)
    -32.94306     -1.27108      0.99078
     -1.27108    -36.13461      0.20048
      0.99078      0.20048     -9.17412
  FORCES: max atom, RMS     0.045894    0.014357
  FORCE total and by dimension    0.120123    0.038024
  Stress total and by dimension   49.803564   36.134613
 Conjugate gradient step on ions:
 trial-energy change:   -0.000367  1 .order   -0.000334   -0.000365   -0.000303
  (g-gl).g = 0.939E-03      g.g   = 0.871E-03  gl.gl    = 0.955E-03
 g(Force)  = 0.871E-03   g(Stress)= 0.000E+00 ortho     =-0.978E-04
 gamma     =   0.98292
 trial     =   0.47144
 opt step  =   1.88577  (harmonic =   2.76655) maximal distance =0.00742262
 next E    =  -470.416396   (d E  =  -0.00107)

 reached required accuracy - stopping structural energy minimisation
 writing wavefunctions

 total charge

[...]

 magnetization (x)

# of ion       s       p       d       tot
    1       -0.014  -0.040   0.653   0.599
    2       -0.019  -0.040   0.686   0.627
    3       -0.018  -0.035   0.657   0.604
    4       -0.022  -0.044   0.738   0.671
    5       -0.025  -0.052   0.711   0.634
    6       -0.018  -0.047   0.647   0.581
    7       -0.018  -0.037   0.704   0.649
    8       -0.018  -0.033   0.709   0.658
    9       -0.016  -0.024   0.559   0.519
   10       -0.010  -0.025   0.380   0.346
   11       -0.016  -0.031   0.699   0.652
   12       -0.013  -0.020   0.387   0.354
   13       -0.017  -0.037   0.747   0.693
   14       -0.021  -0.043   0.722   0.658
   15       -0.023  -0.052   0.689   0.614
   16       -0.028  -0.050   0.731   0.653
   17       -0.016  -0.026   0.520   0.479
   18       -0.015  -0.039   0.707   0.652
   19       -0.022  -0.034   0.672   0.616
   20       -0.014  -0.020   0.516   0.482
   21       -0.015  -0.030   0.718   0.673
   22       -0.018  -0.044   0.695   0.633
   23       -0.013  -0.036   0.457   0.408
   24       -0.027  -0.043   0.735   0.666
   25       -0.010  -0.014   0.336   0.312
   26       -0.020  -0.029   0.669   0.620
   27       -0.014  -0.027   0.533   0.492
   28       -0.016  -0.027   0.694   0.652
   29       -0.024  -0.019   0.755   0.712
   30       -0.018  -0.031   0.685   0.636
   31       -0.007  -0.008   0.363   0.348
   32       -0.019  -0.038   0.712   0.654
   33       -0.017  -0.030   0.330   0.282
   34        0.011  -0.010   2.540   2.541
   35       -0.003  -0.035   2.626   2.589
   36        0.004  -0.017   2.732   2.719
   37        0.011  -0.011   2.897   2.896
   38        0.009   0.003   2.684   2.696
   39        0.006  -0.016   2.653   2.644
   40        0.007  -0.014   2.836   2.829
   41        0.013   0.004   2.473   2.490
   42       -0.007  -0.035   2.451   2.410
   43        0.000  -0.027   2.642   2.616
   44        0.002  -0.015   2.595   2.582
   45        0.005  -0.017   2.560   2.548
   46        0.008  -0.019   2.832   2.821
   47       -0.008  -0.010   2.814   2.796
   48        0.014  -0.010   2.915   2.920
   49        0.007  -0.000   2.933   2.940
   50        0.003  -0.015   2.604   2.591
   51        0.008  -0.004   2.416   2.421
   52       -0.023  -0.040  -1.541  -1.605
   53        0.008  -0.009   2.844   2.842
   54        0.017   0.014   2.673   2.703
   55       -0.026  -0.040  -1.937  -2.003
   56        0.015  -0.002   2.589   2.602
   57        0.012  -0.008   2.825   2.828
   58        0.014   0.003   2.550   2.568
   59        0.004  -0.017   2.689   2.676
   60        0.011  -0.007   2.638   2.642
   61       -0.024  -0.030  -2.024  -2.078
   62       -0.029  -0.048  -2.125  -2.203
   63        0.009  -0.010   2.810   2.810
   64        0.014   0.031   2.600   2.645
   65        0.003   0.096   0.000   0.099
   66        0.003   0.085   0.000   0.088
   67        0.002   0.094   0.000   0.097
   68        0.002   0.081   0.000   0.083
   69        0.006   0.175   0.000   0.181
   70        0.007   0.003   0.000   0.010
tot         -0.463  -0.983  85.311  83.865