 vasp.5.4.4.18Apr17-6-g9f103f2a35 (build Sep 06 2021 19:49:22) complex

 executed on             LinuxIFC date 2021.12.27  22:14:35

 INCAR:
 POTCAR:    PAW_PBE Ni 02Aug2007
 POTCAR:    PAW_PBE Fe 06Sep2000
 POTCAR:    PAW_PBE Ni 02Aug2007
   VRHFIN =Ni:

   TITEL  = PAW_PBE Ni 02Aug2007
   POMASS =   58.690; ZVAL   =   10.000    mass and valenz
   ENMAX  =  269.532; ENMIN  =  202.149 eV

 POTCAR:    PAW_PBE Fe 06Sep2000
   VRHFIN =Fe:  d7 s1

   TITEL  = PAW_PBE Fe 06Sep2000
   POMASS =   55.847; ZVAL   =    8.000    mass and valenz
   ENMAX  =  267.882; ENMIN  =  200.911 eV

 Optimization of the real space projectors (new method)

 maximal supplied QI-value         = 16.25
 optimisation between [QCUT,QGAM] = [ 11.54, 23.24] = [ 37.28,151.24] Ry
 Optimized for a Real-space Cutoff    1.45 Angstroem

   l    n(q)    QCUT    max X(q) W(low)/X(q) W(high)/X(q)  e(spline)
   2      9    11.539    60.317    0.19E-03    0.47E-04    0.16E-06
   2      9    11.539    55.921    0.19E-03    0.48E-04    0.16E-06
   0     10    11.539    51.690    0.80E-04    0.50E-04    0.24E-06
   0     10    11.539    30.015    0.73E-04    0.45E-04    0.22E-06
   1     10    11.539    18.849    0.87E-04    0.16E-03    0.71E-07
   1     10    11.539    14.624    0.73E-04    0.13E-03    0.64E-07
 Optimization of the real space projectors (new method)

 maximal supplied QI-value         = 16.25
 optimisation between [QCUT,QGAM] = [ 11.54, 23.24] = [ 37.28,151.24] Ry
 Optimized for a Real-space Cutoff    1.53 Angstroem

   l    n(q)    QCUT    max X(q) W(low)/X(q) W(high)/X(q)  e(spline)
   2     10    11.539    80.901    0.11E-03    0.14E-03    0.21E-06
   2     10    11.539    75.754    0.11E-03    0.14E-03    0.22E-06
   0     11    11.539    58.752    0.52E-04    0.18E-04    0.33E-06
   0     11    11.539    30.679    0.44E-04    0.16E-04    0.30E-06
   1     10    11.539    17.977    0.53E-04    0.29E-04    0.13E-06
   1     10    11.539    13.559    0.44E-04    0.25E-04    0.11E-06
  PAW_PBE Ni 02Aug2007                  :
  PAW_PBE Fe 06Sep2000                  :

 POSCAR: POSCAR
  positions in direct lattice
  velocities in cartesian coordinates
 exchange correlation table for  LEXCH =        8
   RHO(1)=    0.500       N(1)  =     2000
   RHO(2)=  100.500       N(2)  =     4000

 ion  position               nearest neighbor table
   1  0.261  0.690  0.814-  13 2.46  14 2.46  13 2.49   7 2.49   6 2.49  10 2.50  15 2.50   3 2.52
                             4 2.53   2 2.53  11 2.54   6 2.54
   2  1.000  0.250  0.752-  13 2.46  14 2.48  10 2.49   6 2.50  11 2.50  14 2.50   7 2.51   4 2.51
                             3 2.52   7 2.52  12 2.52   1 2.53
   3  0.250  0.939  0.561-  14 2.47   6 2.49   7 2.50   8 2.50  12 2.50  12 2.51   9 2.51   2 2.52
                             4 2.52   6 2.52   1 2.52   5 2.53
   4  0.000  0.499  0.501-  16 2.47   8 2.49  12 2.50   6 2.50   7 2.50   7 2.51   2 2.51   9 2.52
                             3 2.52   8 2.52   5 2.52   1 2.53
   5  0.989  0.748  0.248-  15 2.46  16 2.46  15 2.49  12 2.49   8 2.49  11 2.50  13 2.50   4 2.52
                             3 2.53   9 2.53  10 2.54   8 2.54
   6  0.753  0.814  0.686-  13 2.46   3 2.49   1 2.49  12 2.49   2 2.50   8 2.50   4 2.50  14 2.50
                            11 2.51   3 2.52   7 2.52   1 2.54
   7  0.498  0.374  0.625-  14 2.48   1 2.49  13 2.49   8 2.49   3 2.50   4 2.50   2 2.51   4 2.51
                            12 2.51   2 2.52   9 2.52   6 2.52
   8  0.497  0.624  0.377-  15 2.46   4 2.49   5 2.49   7 2.49   9 2.50   6 2.50   3 2.50  16 2.50
                            10 2.51   4 2.52  12 2.52   5 2.54
   9  0.250  0.188  0.310-  15 2.46  16 2.48  11 2.49   8 2.50  10 2.50  16 2.50  12 2.51   3 2.51
                             4 2.52  12 2.52   7 2.52   5 2.53
  10  0.256  0.437  0.062-  15 2.45   2 2.49   9 2.50   1 2.50  16 2.51  14 2.51  13 2.51   8 2.51
                            11 2.52  16 2.53   5 2.54  13 2.57
  11  0.994  0.000  0.001-  13 2.45   9 2.49   2 2.50   5 2.50  14 2.51  16 2.51  15 2.51   6 2.51
                            10 2.52  14 2.53   1 2.54  15 2.57
  12  0.752  0.063  0.437-  16 2.48   5 2.49  15 2.49   6 2.49   4 2.50   3 2.50   9 2.51   3 2.51
                             7 2.51   9 2.52   2 2.52   8 2.52
  13  0.764  0.569  0.931-  11 2.45   6 2.46   1 2.46   2 2.46   1 2.49   7 2.49   5 2.50  10 2.51
                            10 2.57  14 2.58  15 2.59  16 2.59
  14  0.496  0.122  0.870-   1 2.46   3 2.47   2 2.48   7 2.48   6 2.50   2 2.50  11 2.51  10 2.51
                            11 2.53  13 2.58  16 2.59  15 2.59
  15  0.486  0.869  0.132-  10 2.45   8 2.46   5 2.46   9 2.46   5 2.49  12 2.49   1 2.50  11 2.51
                            11 2.57  16 2.58  13 2.59  14 2.59
  16  0.754  0.315  0.193-   5 2.46   4 2.47   9 2.48  12 2.48   8 2.50   9 2.50  10 2.51  11 2.51
                            10 2.53  15 2.58  14 2.59  13 2.59

IMPORTANT INFORMATION: All symmetrisations will be switched off!
NOSYMM: (Re-)initialisation of all symmetry stuff for point group C_1.

Automatic generation of k-mesh.
 generate k-points for:    8    6    5
Space group operators:
 irot       det(A)        alpha          n_x          n_y          n_z        tau_x        tau_y        tau_z
    1     1.000000     0.000001     1.000000     0.000000     0.000000     0.000000     0.000000     0.000000

 Subroutine IBZKPT returns following result:

 Found    122 irreducible k-points:

 Following reciprocal coordinates:
            Coordinates               Weight
  0.000000  0.000000  0.000000      1.000000
  0.125000  0.000000  0.000000      2.000000
  0.250000  0.000000  0.000000      2.000000
  0.375000  0.000000  0.000000      2.000000
  0.500000  0.000000  0.000000      1.000000
  0.000000  0.166667  0.000000      2.000000
  0.125000  0.166667  0.000000      2.000000
  0.250000  0.166667  0.000000      2.000000
  0.375000  0.166667  0.000000      2.000000
  0.500000  0.166667  0.000000      2.000000
 -0.375000  0.166667  0.000000      2.000000
 -0.250000  0.166667  0.000000      2.000000
 -0.125000  0.166667  0.000000      2.000000
  0.000000  0.333333  0.000000      2.000000
  0.125000  0.333333  0.000000      2.000000
  0.250000  0.333333  0.000000      2.000000
  0.375000  0.333333  0.000000      2.000000
  0.500000  0.333333  0.000000      2.000000
 -0.375000  0.333333  0.000000      2.000000
 -0.250000  0.333333  0.000000      2.000000
 -0.125000  0.333333  0.000000      2.000000
  0.000000  0.500000  0.000000      1.000000
  0.125000  0.500000  0.000000      2.000000
  0.250000  0.500000  0.000000      2.000000
  0.375000  0.500000  0.000000      2.000000
  0.500000  0.500000  0.000000      1.000000
  0.000000  0.000000  0.200000      2.000000
  0.125000  0.000000  0.200000      2.000000
  0.250000  0.000000  0.200000      2.000000
  0.375000  0.000000  0.200000      2.000000
  0.500000  0.000000  0.200000      2.000000
 -0.375000  0.000000  0.200000      2.000000
 -0.250000  0.000000  0.200000      2.000000
 -0.125000  0.000000  0.200000      2.000000
  0.000000  0.166667  0.200000      2.000000
  0.125000  0.166667  0.200000      2.000000
  0.250000  0.166667  0.200000      2.000000
  0.375000  0.166667  0.200000      2.000000
  0.500000  0.166667  0.200000      2.000000
 -0.375000  0.166667  0.200000      2.000000
 -0.250000  0.166667  0.200000      2.000000
 -0.125000  0.166667  0.200000      2.000000
  0.000000  0.333333  0.200000      2.000000
  0.125000  0.333333  0.200000      2.000000
  0.250000  0.333333  0.200000      2.000000
  0.375000  0.333333  0.200000      2.000000
  0.500000  0.333333  0.200000      2.000000
 -0.375000  0.333333  0.200000      2.000000
 -0.250000  0.333333  0.200000      2.000000
 -0.125000  0.333333  0.200000      2.000000
  0.000000  0.500000  0.200000      2.000000
  0.125000  0.500000  0.200000      2.000000
  0.250000  0.500000  0.200000      2.000000
  0.375000  0.500000  0.200000      2.000000
  0.500000  0.500000  0.200000      2.000000
 -0.375000  0.500000  0.200000      2.000000
 -0.250000  0.500000  0.200000      2.000000
 -0.125000  0.500000  0.200000      2.000000
  0.000000 -0.333333  0.200000      2.000000
  0.125000 -0.333333  0.200000      2.000000
[...]
  0.125000 -0.333333  0.400000      2.000000
  0.250000 -0.333333  0.400000      2.000000
  0.375000 -0.333333  0.400000      2.000000
  0.500000 -0.333333  0.400000      2.000000
 -0.375000 -0.333333  0.400000      2.000000
 -0.250000 -0.333333  0.400000      2.000000
 -0.125000 -0.333333  0.400000      2.000000
  0.000000 -0.166667  0.400000      2.000000
  0.125000 -0.166667  0.400000      2.000000
  0.250000 -0.166667  0.400000      2.000000
  0.375000 -0.166667  0.400000      2.000000
  0.500000 -0.166667  0.400000      2.000000
 -0.375000 -0.166667  0.400000      2.000000
 -0.250000 -0.166667  0.400000      2.000000
 -0.125000 -0.166667  0.400000      2.000000

 Following cartesian coordinates:
            Coordinates               Weight
 -0.000000 -0.000000 -0.000000      1.000000
  0.031250  0.031250 -0.093750      2.000000
  0.062500  0.062500 -0.187500      2.000000
  0.093750  0.093750 -0.281250      2.000000
  0.125000  0.125000 -0.375000      1.000000
 -0.010417 -0.093750 -0.052083      2.000000
  0.020833 -0.062500 -0.145833      2.000000
  0.052083 -0.031250 -0.239583      2.000000
  0.083333 -0.000000 -0.333333      2.000000
  0.114583  0.031250 -0.427083      2.000000
 -0.104167 -0.187500  0.229167      2.000000
 -0.072917 -0.156250  0.135417      2.000000
 -0.041667 -0.125000  0.041667      2.000000
 -0.020833 -0.187500 -0.104167      2.000000
  0.010417 -0.156250 -0.197917      2.000000
  0.041667 -0.125000 -0.291667      2.000000
  0.072917 -0.093750 -0.385417      2.000000
  0.104167 -0.062500 -0.479167      2.000000
 -0.114583 -0.281250  0.177083      2.000000
 -0.083333 -0.250000  0.083333      2.000000
 -0.052083 -0.218750 -0.010417      2.000000
 -0.031250 -0.281250 -0.156250      1.000000
 -0.000000 -0.250000 -0.250000      2.000000
  0.031250 -0.218750 -0.343750      2.000000
  0.062500 -0.187500 -0.437500      2.000000
  0.093750 -0.156250 -0.531250      1.000000
 -0.087500  0.012500 -0.037500      2.000000
 -0.056250  0.043750 -0.131250      2.000000
 -0.025000  0.075000 -0.225000      2.000000
  0.006250  0.106250 -0.318750      2.000000
  0.037500  0.137500 -0.412500      2.000000
 -0.181250 -0.081250  0.243750      2.000000
 -0.150000 -0.050000  0.150000      2.000000
 -0.118750 -0.018750  0.056250      2.000000
 -0.097917 -0.081250 -0.089583      2.000000
 -0.066667 -0.050000 -0.183333      2.000000
 -0.035417 -0.018750 -0.277083      2.000000
 -0.004167  0.012500 -0.370833      2.000000
  0.027083  0.043750 -0.464583      2.000000
 -0.191667 -0.175000  0.191667      2.000000
 -0.160417 -0.143750  0.097917      2.000000
 -0.129167 -0.112500  0.004167      2.000000
 -0.108333 -0.175000 -0.141667      2.000000
 -0.077083 -0.143750 -0.235417      2.000000
 -0.045833 -0.112500 -0.329167      2.000000
 -0.014583 -0.081250 -0.422917      2.000000
  0.016667 -0.050000 -0.516667      2.000000
 -0.202083 -0.268750  0.139583      2.000000
[...]
 parallel 3D FFT for charge:
    minimum data exchange during FFTs selected (reduces bandwidth)

 initial charge density was supplied:
 number of electron     151.9999949 magnetization      18.1255505
 keeping initial charge density in first step

 Maximum index for non-local projection operator          827
 Maximum index for augmentation-charges          723 (set IRDMAX)

 First call to EWALD:  gamma=   0.315
 Maximum number of real-space cells 3x 3x 2
 Maximum number of reciprocal cells 2x 3x 4

--------------------------------------- Iteration      1(   1)  ---------------------------------------

 BZINTS: Fermi energy: 22.402804;152.000000 electrons
         Band energy:2267.284361;  BLOECHL correction: -0.085302

 eigenvalue-minimisations  : 51240
 total energy-change (2. order) : 0.1250368E+04  (-0.6406774E+04)
 number of electron     151.9999949 magnetization      18.1255505
 augmentation part      151.9999949 magnetization      18.1255505

 Free energy of the ion-electron system (eV)
  alpha Z        PSCENC =       816.77350523
  Ewald energy   TEWEN  =    -13459.44393300
  -Hartree energ DENC   =     -3211.22047622
  -exchange      EXHF   =         0.00000000
  -V(xc)+E(xc)   XCENC  =       387.36256456
  PAW double counting   =     16554.33799839   -17414.02741530
  entropy T*S    EENTRO =         0.00000000
  eigenvalues    EBANDS =      2267.28436124
  atomic energy  EATOM  =     15309.30175564
  Solvation  Ediel_sol  =         0.00000000
  free energy    TOTEN  =      1250.36836053 eV

  energy without entropy =     1250.36836053  energy(sigma->0) =     1250.36836053

[...]

 BZINTS: Fermi energy: 10.154566;152.000000 electrons
         Band energy:1061.531706;  BLOECHL correction: -0.030568

 eigenvalue-minimisations  : 51240
 total energy-change (2. order) :-0.1205753E+04  (-0.1145453E+04)
 number of electron     151.9999949 magnetization      18.1255505
 augmentation part      151.9999949 magnetization      18.1255505

[...]

 BZINTS: Fermi energy:  8.459340;152.000000 electrons
         Band energy: 923.121245;  BLOECHL correction: -0.060096

[...]

--------------------------------------- Iteration      1(   9)  ---------------------------------------

[...]

 eigenvalue-minimisations  : 39482
 total energy-change (2. order) :-0.7615508E-06  (-0.8147391E-06)
 number of electron     151.9999949 magnetization      18.1255505
 augmentation part      151.9999949 magnetization      18.1255505

 Free energy of the ion-electron system (eV)
  alpha Z        PSCENC =       816.77350523
  Ewald energy   TEWEN  =    -13459.44393300
  -Hartree energ DENC   =     -3211.22047622
  -exchange      EXHF   =         0.00000000
  -V(xc)+E(xc)   XCENC  =       387.36256456
  PAW double counting   =     16554.33799839   -17414.02741530
  entropy T*S    EENTRO =         0.00000000
  eigenvalues    EBANDS =       917.65300737
  atomic energy  EATOM  =     15309.30175564
  Solvation  Ediel_sol  =         0.00000000
  free energy    TOTEN  =       -99.26299334 eV

  energy without entropy =      -99.26299334  energy(sigma->0) =      -99.26299334

 average (electrostatic) potential at core
  the test charge radii are     0.9791  1.0103
  (the norm of the test charge is              1.0000)
       1 -82.9666       2 -82.9130       3 -82.8979       4 -82.8980       5 -82.9666
       6 -82.9158       7 -82.9218       8 -82.9159       9 -82.9131      10 -83.0095
      11 -83.0092      12 -82.9218      13 -41.1695      14 -41.1521      15 -41.1696
      16 -41.1522

 E-fermi :   8.4230     XC(G=0): -13.1408     alpha+bet :-15.5409

 spin component 1

 k-point     1 :       0.0000    0.0000    0.0000
  band No.  band energies     occupation
      1      -0.4930      1.00000
      2       2.1421      1.00000
      3       2.1959      1.00000
      4       3.4351      1.00000
      5       3.6275      1.00000
      6       3.6781      1.00000
      7       3.9997      1.00000
      8       4.0724      1.00000
      9       4.1492      1.00000
     10       4.1706      1.00000
     11       4.2080      1.00000
     12       4.2537      1.00000
     13       4.3358      1.00000
     14       4.3731      1.00000
     15       4.3812      1.00000
     16       4.5590      1.00000
     17       4.5728      1.00000
     18       4.6563      1.00000
     19       4.6817      1.00000
     20       4.8023      1.00000
     21       4.8571      1.00000
     22       4.9442      1.00000
     23       4.9864      1.00000
     24       5.0344      1.00000
     25       5.0602      1.00000
     26       5.1062      1.00000
     27       5.1331      1.00000
     28       5.2140      1.00000
     29       5.2660      1.00000
     30       5.3224      1.00000
     31       5.4924      1.00000
     32       5.5422      1.00000
     33       5.6635      1.00000
     34       5.6763      1.00000
     35       5.6992      1.00000
     36       5.7863      1.00000
     37       5.8399      1.00000
     38       5.8638      1.00000
     39       5.9027      1.00000
     40       5.9115      1.00000
     41       5.9279      1.00000
     42       5.9824      1.00000
     43       6.0045      1.00000
     44       6.0130      1.00000
     45       6.0628      1.00000
     46       6.1092      1.00000
     47       6.1406      1.00000
     48       6.1590      1.00000
     49       6.1631      1.00000
     50       6.4241      1.00000
     51       6.4822      1.00000
     52       6.5107      1.00000
     53       6.5716      1.00000
     54       6.5857      1.00000
     55       6.6778      1.00000
     56       6.7443      1.00000
     57       6.7508      1.00000
     58       6.7808      1.00000
     59       6.7976      1.00000
     60       6.8582      1.00000
[...]
     91      11.7724      0.00000
     92      11.7961      0.00000
     93      13.1141      0.00000
     94      13.1939      0.00000
     95      13.7321      0.00000
     96      13.7840      0.00000
     97      14.1090      0.00000
     98      14.7280      0.00000
     99      14.7364      0.00000
    100      15.8341      0.00000
    101      15.9502      0.00000
    102      16.3496      0.00000
    103      16.4752      0.00000
    104      16.6652      0.00000
    105      16.9816      0.00000

[...]

 spin component 2

[...]

 k-point   122 :      -0.1250   -0.1667    0.4000
  band No.  band energies     occupation
      1       0.1906      1.00000
      2       1.1022      1.00000
      3       3.1247      1.00000
      4       3.3134      1.00000
      5       3.9101      1.00000
      6       4.2509      1.00000
      7       4.5800      1.00000
      8       4.6409      1.00000
      9       4.7454      1.00000
     10       4.7843      1.00000
     11       5.0783      1.00000
     12       5.1196      1.00000
     13       5.1598      1.00000
     14       5.1708      1.00000
     15       5.2367      1.00000
     16       5.2577      1.00000
     17       5.4251      1.00000
     18       5.4477      1.00000
     19       5.5603      1.00000
     20       5.6088      1.00000
     21       5.6557      1.00000
     22       5.7831      1.00000
     23       5.7942      1.00000
     24       5.8304      1.00000
     25       5.9220      1.00000
     26       5.9515      1.00000
     27       6.0491      1.00000
     28       6.1675      1.00000
     29       6.2271      1.00000
     30       6.3400      1.00000
     31       6.3671      1.00000
     32       6.4646      1.00000
     33       6.4853      1.00000
     34       6.5349      1.00000
     35       6.5576      1.00000
     36       6.6116      1.00000
     37       6.6244      1.00000
     38       6.7327      1.00000
     39       6.8120      1.00000
     40       6.8656      1.00000
     41       6.9236      1.00000
     42       6.9286      1.00000
     43       6.9728      1.00000
     44       6.9920      1.00000
     45       7.0319      1.00000
     46       7.1025      1.00000
     47       7.1437      1.00000
     48       7.1587      1.00000
     49       7.2607      1.00000
     50       7.3240      1.00000
     51       7.4182      1.00000
     52       7.4395      1.00000
     53       7.4951      1.00000
     54       7.5538      1.00000
     55       7.5707      1.00000
     56       7.6749      1.00000
     57       7.7506      1.00000
     58       7.7635      1.00000
     59       7.8024      1.00000
     60       7.8483      1.00000
[...]
     91      12.2297      0.00000
     92      12.6348      0.00000
     93      12.8124      0.00000
     94      13.5070      0.00000
     95      13.9515      0.00000
     96      14.2025      0.00000
     97      14.9987      0.00000
     98      15.1967      0.00000
     99      15.7942      0.00000
    100      15.9186      0.00000
    101      16.1548      0.00000
    102      16.4909      0.00000
    103      16.9784      0.00000
    104      18.1317      0.00000
    105      18.2932      0.00000

 soft charge-density along one line, spin component           1
         0         1         2         3         4         5         6         7         8         9
 total charge-density along one line

 soft charge-density along one line, spin component           2
         0         1         2         3         4         5         6         7         8         9
 total charge-density along one line

------------------------ aborting loop because EDIFF is reached ----------------------------------------

 total charge

# of ion       s       p       d       tot
    1        0.507   0.508   8.324   9.339
    2        0.502   0.502   8.324   9.328
    3        0.492   0.485   8.313   9.290
    4        0.492   0.485   8.313   9.290
    5        0.507   0.508   8.324   9.339
    6        0.499   0.495   8.318   9.313
    7        0.498   0.494   8.318   9.311
    8        0.499   0.495   8.318   9.313
    9        0.502   0.502   8.324   9.328
   10        0.509   0.515   8.322   9.346
   11        0.509   0.515   8.322   9.346
   12        0.498   0.494   8.318   9.311
   13        0.475   0.509   6.170   7.154
   14        0.473   0.504   6.166   7.142
   15        0.475   0.509   6.170   7.154
   16        0.473   0.504   6.166   7.143
tot          7.912   8.025 124.510 140.447

 magnetization (x)

[...]

  FORCE on cell =-STRESS in cart. coord.  units (eV):
  Direction    XX          YY          ZZ          XY          YZ          ZX
  Alpha Z   816.77351   816.77351   816.77351
  Ewald   -4530.18030 -4445.76929 -4483.52762    -2.13876    24.54309   -20.19634
  Hartree  1027.79643  1108.61477  1073.39189    -1.12956    23.21889   -20.62424
  E(xc)    -820.31299  -820.37758  -820.26763     0.03274    -0.06799     0.01895
  Local     205.40053    40.49111   114.25592     3.22284   -47.89697    41.62318
  n-local  -195.05515  -195.11471  -194.72213    -0.01994    -0.35789    -0.20456
  augment  2268.88507  2268.68498  2267.97372     0.17167     0.27031    -0.27978
  Kinetic  1225.39685  1225.23591  1224.76256    -0.16308     0.41659    -0.62582
  Fock        0.00000     0.00000     0.00000     0.00000     0.00000     0.00000
  Total      -1.29606    -1.46131    -1.35980    -0.02408     0.12603    -0.28862
  in kB     -11.65268   -13.13843   -12.22575    -0.21650     1.13309    -2.59496

 VOLUME and BASIS-vectors are now :
  energy-cutoff  :      520.00
  volume of cell :      178.20
      direct lattice vectors                 reciprocal lattice vectors
     1.772500000  1.772500000 -3.545000000     0.070521862  0.070521862 -0.211565585
     0.000000000 -5.317500000 -1.772500000    -0.017630465 -0.158674189 -0.088152327
    -7.090000000  1.772500000 -1.772500000    -0.123413258  0.017630465 -0.052891396

  length of vectors
     4.341720569  5.605137153  7.520080618     0.233894555  0.182370953  0.135422175

 FORCES acting on ions
    electron-ion (+dipol)            ewald-force                    non-local-force                 convergence-correction
   0.815E+02 -.879E+01 0.539E+02   -.816E+02 0.886E+01 -.541E+02   -.109E+00 -.168E-01 -.172E-01   0.282E+00 -.544E-01 0.157E+00
   0.869E+02 -.565E+01 0.228E+02   -.871E+02 0.565E+01 -.228E+02   -.664E-01 0.376E-01 -.116E+00   0.253E+00 -.344E-01 0.961E-01
   0.176E+02 -.480E+00 0.191E+02   -.177E+02 0.338E+00 -.191E+02   0.184E-03 0.341E-01 -.748E-01   0.655E-01 0.109E+00 0.887E-01
   -.176E+02 0.485E+00 -.191E+02   0.177E+02 -.335E+00 0.191E+02   -.467E-02 -.265E-01 0.710E-01   -.609E-01 -.125E+00 -.868E-01
   -.815E+02 0.882E+01 -.539E+02   0.817E+02 -.889E+01 0.541E+02   0.114E+00 0.130E-01 0.180E-01   -.292E+00 0.563E-01 -.162E+00
   0.749E+02 -.430E+01 0.234E+02   -.749E+02 0.425E+01 -.235E+02   -.220E+00 0.716E-01 -.320E-01   0.227E+00 -.125E-01 0.810E-01
   0.548E+02 -.244E+02 0.277E+02   -.549E+02 0.245E+02 -.278E+02   -.729E-01 0.205E-01 -.341E-03   0.182E+00 -.118E+00 0.333E-01
   -.749E+02 0.434E+01 -.234E+02   0.749E+02 -.427E+01 0.235E+02   0.228E+00 -.679E-01 0.342E-01   -.247E+00 -.285E-02 -.905E-01
   -.869E+02 0.561E+01 -.228E+02   0.871E+02 -.562E+01 0.228E+02   0.641E-01 -.336E-01 0.113E+00   -.250E+00 0.346E-01 -.851E-01
   -.309E+02 -.156E+02 0.920E+01   0.311E+02 0.157E+02 -.922E+01   -.612E-01 -.118E+00 0.508E-01   -.864E-01 -.447E-01 -.197E-01
   0.309E+02 0.156E+02 -.919E+01   -.311E+02 -.157E+02 0.921E+01   0.611E-01 0.113E+00 -.513E-01   0.942E-01 0.541E-01 0.266E-01
   -.548E+02 0.244E+02 -.277E+02   0.549E+02 -.245E+02 0.278E+02   0.820E-01 -.265E-01 -.206E-02   -.207E+00 0.138E+00 -.294E-01
   0.695E+02 -.256E+02 -.124E+02   -.697E+02 0.259E+02 0.126E+02   0.620E-01 -.258E+00 -.162E+00   0.169E+00 -.830E-01 -.978E-02
   0.795E+02 -.687E+01 0.563E+02   -.799E+02 0.680E+01 -.566E+02   0.224E+00 0.309E-01 0.205E+00   0.221E+00 0.341E-01 0.121E+00
   -.695E+02 0.256E+02 0.124E+02   0.697E+02 -.259E+02 -.126E+02   -.621E-01 0.259E+00 0.162E+00   -.162E+00 0.756E-01 0.111E-01
   -.795E+02 0.687E+01 -.563E+02   0.799E+02 -.681E+01 0.566E+02   -.224E+00 -.317E-01 -.204E+00   -.215E+00 -.299E-01 -.120E+00
   0.119E-01 0.914E-03 -.227E-02   -.284E-13 0.355E-13 -.995E-13   0.149E-01 0.450E-03 -.622E-02   -.263E-01 -.229E-02 0.107E-01

 POSITION                                       TOTAL-FORCE (eV/Angst)
     -5.31020     -1.76083     -3.59017         0.010662     -0.003926     -0.003278
     -3.56127      1.77678     -5.32116         0.010585      0.008885     -0.008718
     -3.53800     -3.55239     -3.54480         0.001925      0.001491     -0.007159
     -3.55199     -1.76513     -1.77272        -0.001677     -0.001788      0.007219
     -0.00737     -1.78416     -5.27234        -0.010569      0.004274      0.003471
     -3.52638     -1.77665     -5.32870        -0.016784      0.000540      0.003288
     -3.54985      0.00059     -3.53863        -0.004414     -0.004618     -0.007597
     -1.79109     -1.76831     -3.53374         0.016429     -0.000805     -0.003623
     -1.75621     -0.00431     -1.76887        -0.010273     -0.009253      0.008705
      0.01595     -1.76247     -1.79121        -0.013113      0.007242      0.007677
      1.75654      1.76245     -3.52626         0.012733     -0.006964     -0.007565
     -1.76767      1.77189     -3.55136         0.004424      0.004972      0.007732
     -5.24420     -0.02159     -5.36658        -0.009841     -0.001718     -0.001315
     -5.28938      1.77167     -3.51586        -0.001551     -0.003860     -0.012557
     -0.07325     -3.52341     -3.49589         0.010009      0.001803      0.001229
     -0.02811      0.00086     -3.57420         0.001454      0.003727      0.012492
    total drift:                                0.000501     -0.000930      0.002178

  FREE ENERGIE OF THE ION-ELECTRON SYSTEM (eV)
  free  energy   TOTEN  =       -99.26299334 eV

  energy  without entropy=      -99.26299334  energy(sigma->0) =      -99.26299334

 total charge

[...]

 magnetization (x)

# of ion       s       p       d       tot
    1       -0.018  -0.039   0.674   0.618
    2       -0.014  -0.036   0.643   0.593
    3       -0.010  -0.028   0.653   0.615
    4       -0.010  -0.028   0.653   0.615
    5       -0.018  -0.039   0.674   0.618
    6       -0.012  -0.030   0.650   0.608
    7       -0.013  -0.032   0.656   0.611
    8       -0.012  -0.030   0.650   0.608
    9       -0.014  -0.036   0.643   0.593
   10       -0.020  -0.047   0.701   0.634
   11       -0.020  -0.047   0.701   0.634
   12       -0.013  -0.032   0.656   0.611
   13        0.004  -0.018   2.745   2.731
   14        0.003  -0.020   2.745   2.728
   15        0.004  -0.018   2.745   2.731
   16        0.003  -0.020   2.745   2.728
tot         -0.159  -0.500  18.936  18.277

 BZINTS: Fermi energy:  8.422968;152.000000 electrons
         Band energy: 917.653007;  BLOECHL correction: -0.060019