 vasp.5.4.4.18Apr17-6-g9f103f2a35 (build Sep 06 2021 19:49:22) complex

 executed on             LinuxIFC date 2021.12.29  15:40:57

 INCAR:
 POTCAR:    PAW_PBE Ni 02Aug2007
 POTCAR:    PAW_PBE Fe 06Sep2000
 POTCAR:    PAW_PBE Ni 02Aug2007
   VRHFIN =Ni:

   TITEL  = PAW_PBE Ni 02Aug2007
   POMASS =   58.690; ZVAL   =   10.000    mass and valenz
   ENMAX  =  269.532; ENMIN  =  202.149 eV

 POTCAR:    PAW_PBE Fe 06Sep2000
   VRHFIN =Fe:  d7 s1

   TITEL  = PAW_PBE Fe 06Sep2000
   POMASS =   55.847; ZVAL   =    8.000    mass and valenz
   ENMAX  =  267.882; ENMIN  =  200.911 eV

 Optimization of the real space projectors (new method)

 maximal supplied QI-value         = 16.25
 optimisation between [QCUT,QGAM] = [ 11.54, 23.24] = [ 37.28,151.24] Ry
 Optimized for a Real-space Cutoff    1.45 Angstroem

   l    n(q)    QCUT    max X(q) W(low)/X(q) W(high)/X(q)  e(spline)
   2      9    11.539    60.317    0.19E-03    0.47E-04    0.16E-06
   2      9    11.539    55.921    0.19E-03    0.48E-04    0.16E-06
   0     10    11.539    51.690    0.80E-04    0.50E-04    0.24E-06
   0     10    11.539    30.015    0.73E-04    0.45E-04    0.22E-06
   1     10    11.539    18.849    0.87E-04    0.16E-03    0.71E-07
   1     10    11.539    14.624    0.73E-04    0.13E-03    0.64E-07
 Optimization of the real space projectors (new method)

 maximal supplied QI-value         = 16.25
 optimisation between [QCUT,QGAM] = [ 11.54, 23.24] = [ 37.28,151.24] Ry
 Optimized for a Real-space Cutoff    1.53 Angstroem

   l    n(q)    QCUT    max X(q) W(low)/X(q) W(high)/X(q)  e(spline)
   2     10    11.539    80.901    0.11E-03    0.14E-03    0.21E-06
   2     10    11.539    75.754    0.11E-03    0.14E-03    0.22E-06
   0     11    11.539    58.752    0.52E-04    0.18E-04    0.33E-06
   0     11    11.539    30.679    0.44E-04    0.16E-04    0.30E-06
   1     10    11.539    17.977    0.53E-04    0.29E-04    0.13E-06
   1     10    11.539    13.559    0.44E-04    0.25E-04    0.11E-06
  PAW_PBE Ni 02Aug2007                  :
  PAW_PBE Fe 06Sep2000                  :

 POSCAR: POSCAR
  positions in direct lattice
  velocities in cartesian coordinates
 exchange correlation table for  LEXCH =        8
   RHO(1)=    0.500       N(1)  =     2000
   RHO(2)=  100.500       N(2)  =     4000

 ion  position               nearest neighbor table
   1  0.249  0.690  0.814-   6 2.51   8 2.51  12 2.52  14 2.52  13 2.53   8 2.53   3 2.54   6 2.54
                             7 2.54   2 2.54   9 2.54   4 2.54
   2  0.002  0.250  0.750-   7 2.51   4 2.52   3 2.52  13 2.52   9 2.53   7 2.53  15 2.54   1 2.54
                            14 2.54   9 2.55   6 2.56   8 2.57
   3  0.250  0.938  0.561-  15 2.50   5 2.52   2 2.52  11 2.53   8 2.53   1 2.54   7 2.55  15 2.55
                             9 2.55   4 2.55   8 2.56  10 2.56
   4  0.001  0.496  0.499-  11 2.50   9 2.50  15 2.51   2 2.52  10 2.52  16 2.52   9 2.52   5 2.53
                             8 2.53  10 2.54   1 2.54   3 2.55
   5  0.003  0.748  0.250-  13 2.50   3 2.52  14 2.52  10 2.53   4 2.53   6 2.53  10 2.53  12 2.53
                            11 2.56  15 2.56  16 2.57  12 2.57
   6  0.745  0.566  0.937-   8 2.50   1 2.51  14 2.51   9 2.52   7 2.52  12 2.53  13 2.53   5 2.53
                             1 2.54  13 2.54   2 2.56  16 2.59
   7  0.505  0.127  0.875-  12 2.49   2 2.51  16 2.52  14 2.52   6 2.52   2 2.53   1 2.54   8 2.54
                             9 2.54   3 2.55  13 2.55  14 2.56
   8  0.745  0.806  0.686-   9 2.46   6 2.50   1 2.51  10 2.51   3 2.53   1 2.53   4 2.53   7 2.54
                            15 2.55   3 2.56  14 2.57   2 2.57
   9  0.505  0.379  0.624-   8 2.46  10 2.49   4 2.50  15 2.51  11 2.52   4 2.52   6 2.52   2 2.53
                             7 2.54   1 2.54   2 2.55   3 2.55
  10  0.503  0.620  0.374-  11 2.48   9 2.49   8 2.51   4 2.52  16 2.52  13 2.52   5 2.53   5 2.53
                             4 2.54  15 2.55   3 2.56  12 2.59
  11  0.253  0.192  0.314-  10 2.48   4 2.50  15 2.50  16 2.50  16 2.50  12 2.51   9 2.52  13 2.52
                             3 2.53  14 2.53   5 2.56  15 2.56
  12  0.499  0.883  0.123-  16 2.44  14 2.49   7 2.49  14 2.51  11 2.51   1 2.52  15 2.52   6 2.53
                             5 2.53  13 2.57   5 2.57  10 2.59
  13  0.246  0.439  0.063-   5 2.50  11 2.52   2 2.52  10 2.52   1 2.53  16 2.53  14 2.53   6 2.53
                             6 2.54   7 2.55  12 2.57  16 2.58
  14  0.000  0.999  0.002-  12 2.49  16 2.49  12 2.51   6 2.51   1 2.52   5 2.52   7 2.52  11 2.53
                            13 2.53   2 2.54   7 2.56   8 2.57
  15  0.743  0.064  0.437-  16 2.48  11 2.50   3 2.50   9 2.51   4 2.51  12 2.52   2 2.54  10 2.55
                             3 2.55   8 2.55   5 2.56  11 2.56
  16  0.750  0.304  0.189-  12 2.44  15 2.48  14 2.49  11 2.50  11 2.50   4 2.52   7 2.52  10 2.52
                            13 2.53   5 2.57  13 2.58   6 2.59

IMPORTANT INFORMATION: All symmetrisations will be switched off!
NOSYMM: (Re-)initialisation of all symmetry stuff for point group C_1.

Automatic generation of k-mesh.
 generate k-points for:    5    4    3
Space group operators:
 irot       det(A)        alpha          n_x          n_y          n_z        tau_x        tau_y        tau_z
    1     1.000000     0.000000     1.000000     0.000000     0.000000     0.000000     0.000000     0.000000

 Subroutine IBZKPT returns following result:

 Found     31 irreducible k-points:

 Following reciprocal coordinates:
            Coordinates               Weight
  0.000000  0.000000  0.000000      1.000000
  0.200000  0.000000  0.000000      2.000000
  0.400000  0.000000  0.000000      2.000000
  0.000000  0.250000  0.000000      2.000000
  0.200000  0.250000  0.000000      2.000000
  0.400000  0.250000  0.000000      2.000000
 -0.400000  0.250000  0.000000      2.000000
 -0.200000  0.250000  0.000000      2.000000
  0.000000  0.500000  0.000000      1.000000
  0.200000  0.500000  0.000000      2.000000
  0.400000  0.500000  0.000000      2.000000
  0.000000  0.000000  0.333333      2.000000
  0.200000  0.000000  0.333333      2.000000
  0.400000  0.000000  0.333333      2.000000
 -0.400000  0.000000  0.333333      2.000000
 -0.200000  0.000000  0.333333      2.000000
  0.000000  0.250000  0.333333      2.000000
  0.200000  0.250000  0.333333      2.000000
  0.400000  0.250000  0.333333      2.000000
 -0.400000  0.250000  0.333333      2.000000
 -0.200000  0.250000  0.333333      2.000000
  0.000000  0.500000  0.333333      2.000000
  0.200000  0.500000  0.333333      2.000000
  0.400000  0.500000  0.333333      2.000000
 -0.400000  0.500000  0.333333      2.000000
 -0.200000  0.500000  0.333333      2.000000
  0.000000 -0.250000  0.333333      2.000000
  0.200000 -0.250000  0.333333      2.000000
  0.400000 -0.250000  0.333333      2.000000
 -0.400000 -0.250000  0.333333      2.000000
 -0.200000 -0.250000  0.333333      2.000000

 Following cartesian coordinates:
            Coordinates               Weight
 -0.000000 -0.000000 -0.000000      1.000000
  0.050000  0.050000 -0.150000      2.000000
  0.100000  0.100000 -0.300000      2.000000
 -0.015625 -0.140625 -0.078125      2.000000
  0.034375 -0.090625 -0.228125      2.000000
  0.084375 -0.040625 -0.378125      2.000000
 -0.115625 -0.240625  0.221875      2.000000
 -0.065625 -0.190625  0.071875      2.000000
 -0.031250 -0.281250 -0.156250      1.000000
  0.018750 -0.231250 -0.306250      2.000000
  0.068750 -0.181250 -0.456250      2.000000
 -0.145833  0.020833 -0.062500      2.000000
 -0.095833  0.070833 -0.212500      2.000000
 -0.045833  0.120833 -0.362500      2.000000
 -0.245833 -0.079167  0.237500      2.000000
 -0.195833 -0.029167  0.087500      2.000000
 -0.161458 -0.119792 -0.140625      2.000000
 -0.111458 -0.069792 -0.290625      2.000000
 -0.061458 -0.019792 -0.440625      2.000000
 -0.261458 -0.219792  0.159375      2.000000
 -0.211458 -0.169792  0.009375      2.000000
 -0.177083 -0.260417 -0.218750      2.000000
 -0.127083 -0.210417 -0.368750      2.000000
 -0.077083 -0.160417 -0.518750      2.000000
 -0.277083 -0.360417  0.081250      2.000000
 -0.227083 -0.310417 -0.068750      2.000000
 -0.130208  0.161458  0.015625      2.000000
 -0.080208  0.211458 -0.134375      2.000000
 -0.030208  0.261458 -0.284375      2.000000
 -0.230208  0.061458  0.315625      2.000000
 -0.180208  0.111458  0.165625      2.000000

 TETIRR: Found    178 inequivalent tetrahedra from      360

 SYSTEM =  SQS-NiFe
 POSCAR =  POSCAR

 Startparameter for this run:
   NWRITE =      2    write-flag & timer
   PREC   = accura    normal or accurate (medium, high low for compatibility)
   ISTART =      0    job   : 0-new  1-cont  2-samecut
   ICHARG =      2    charge: 1-file 2-atom 10-const
   ISPIN  =      2    spin polarized calculation?
   LNONCOLLINEAR =      F non collinear calculations
   LSORBIT =      F    spin-orbit coupling
   INIWAV =      1    electr: 0-lowe 1-rand  2-diag
   LASPH  =      F    aspherical Exc in radial PAW
   METAGGA=      F    non-selfconsistent MetaGGA calc.

 Electronic Relaxation 1
   ENCUT  =  520.0 eV  38.22 Ry    6.18 a.u.   8.14 10.51 14.10*2*pi/ulx,y,z
   ENINI  =  520.0     initial cutoff
   ENAUG  =  544.6 eV  augmentation charge cutoff
   NELM   =    200;   NELMIN=  2; NELMDL= -5     # of ELM steps
   EDIFF  = 0.1E-05   stopping-criterion for ELM
   LREAL  =      T    real-space projection
   NLSPLINE    = F    spline interpolate recip. space projectors
   LCOMPAT=      F    compatible to vasp.4.4
   GGA_COMPAT  = T    GGA compatible to vasp.4.4-vasp.4.6
   LMAXPAW     = -100 max onsite density
   LMAXMIX     =    2 max onsite mixed and CHGCAR
   VOSKOWN=      0    Vosko Wilk Nusair interpolation
   ROPT   =   -0.00025  -0.00025
 Ionic relaxation
   EDIFFG = -.2E-01   stopping-criterion for IOM
   NSW    =      0    number of steps for IOM
   NBLOCK =      1;   KBLOCK =      1    inner block; outer block
   IBRION =     -1    ionic relax: 0-MD 1-quasi-New 2-CG
   NFREE  =      0    steps in history (QN), initial steepest desc. (CG)
   ISIF   =      2    stress and relaxation
   IWAVPR =     10    prediction:  0-non 1-charg 2-wave 3-comb
   ISYM   =      0    0-nonsym 1-usesym 2-fastsym
   LCORR  =      T    Harris-Foulkes like correction to forces

   POTIM  = 0.5000    time-step for ionic-motion
   TEIN   =    0.0    initial temperature
   TEBEG  =    0.0;   TEEND  =   0.0 temperature during run
   SMASS  =  -3.00    Nose mass-parameter (am)
   estimated Nose-frequenzy (Omega)   =  0.10E-29 period in steps =****** mass=  -0.438E-27a.u.
   SCALEE = 1.0000    scale energy and forces
   NPACO  =    256;   APACO  = 16.0  distance and # of slots for P.C.
   PSTRESS=    0.0 pullay stress

  Mass of Ions in am
   POMASS =  58.69 55.85
  Ionic Valenz
   ZVAL   =  10.00  8.00
  Atomic Wigner-Seitz radii
  virtual crystal weights
   VCA    =   1.00  1.00
   NELECT =     136.0000    total number of electrons
   NUPDOWN=      -1.0000    fix difference up-down

 DOS related values:
   EMIN   =  10.00;   EMAX   =-10.00  energy-range for DOS
   EFERMI =   0.00
[...]
 number of electron     136.0000000 magnetization      40.0000000
 augmentation part      136.0000000 magnetization      40.0000000

 Free energy of the ion-electron system (eV)
  alpha Z        PSCENC =       923.24942624
  Ewald energy   TEWEN  =    -10699.34444403
  -Hartree energ DENC   =     -2441.66203104
  -exchange      EXHF   =         0.00000000
  -V(xc)+E(xc)   XCENC  =       187.12717868
  PAW double counting   =     10496.44389667   -10856.50629440
  entropy T*S    EENTRO =         0.00000000
  eigenvalues    EBANDS =      2153.19132958
  atomic energy  EATOM  =     11442.43584605
  Solvation  Ediel_sol  =         0.00000000
  free energy    TOTEN  =      1204.93490773 eV

  energy without entropy =     1204.93490773  energy(sigma->0) =     1204.93490773

[...]

 BZINTS: Fermi energy: 10.467798;136.000000 electrons
         Band energy: 953.097076;  BLOECHL correction: -0.020163

 eigenvalue-minimisations  : 12648
 total energy-change (2. order) :-0.1200094E+04  (-0.1129669E+04)
 number of electron     136.0000000 magnetization      40.0000000
 augmentation part      136.0000000 magnetization      40.0000000

[...]

 Broyden mixing:
  rms(total) = 0.44255E+01    rms(broyden)= 0.44255E+01
  rms(prec ) = 0.57068E+01
  weight for this iteration     100.00

[...]

 eigenvalues of (default mixing * dielectric matrix)
  average eigenvalue GAMMA=   0.3956
  0.3956

[...]

 eigenvalue-minimisations  : 11237
 total energy-change (2. order) : 0.4705761E-04  (-0.7664660E-06)
 number of electron     136.0000022 magnetization      32.5048370
 augmentation part       74.5077004 magnetization      26.8426107

[...]

 Broyden mixing:
  rms(total) = 0.29695E-03    rms(broyden)= 0.29690E-03
  rms(prec ) = 0.45462E-03
  weight for this iteration     100.00

 eigenvalues of (default mixing * dielectric matrix)
  average eigenvalue GAMMA=   0.7381
  2.2753  2.2753  2.4622  2.2277  1.4117  1.4117  1.0269  1.0269  1.0841  1.0841
  0.7900  0.7900  0.6210  0.6210  0.6408  0.6006  0.6006  0.0924  0.0973  0.1057
  0.1203  0.1256  0.1342  0.1682  0.1658  0.1475  0.1475  0.1511  0.1551  0.1601
  0.1593

[...]

--------------------------------------- Iteration      1(  37)  ---------------------------------------

[...]

 eigenvalue-minimisations  :  6758
 total energy-change (2. order) :-0.6477203E-06  (-0.1503823E-07)
 number of electron     136.0000022 magnetization      32.5136216
 augmentation part       74.5073409 magnetization      26.8508148

 Free energy of the ion-electron system (eV)
  alpha Z        PSCENC =       923.24942624
  Ewald energy   TEWEN  =    -10699.34444403
  -Hartree energ DENC   =     -2163.60768131
  -exchange      EXHF   =         0.00000000
  -V(xc)+E(xc)   XCENC  =       177.42417053
  PAW double counting   =     13213.22777088   -13598.66816799
  entropy T*S    EENTRO =         0.00000000
  eigenvalues    EBANDS =       585.66765644
  atomic energy  EATOM  =     11442.43584605
  Solvation  Ediel_sol  =         0.00000000
  free energy    TOTEN  =      -119.61542319 eV

  energy without entropy =     -119.61542319  energy(sigma->0) =     -119.61542319

 average (electrostatic) potential at core
  the test charge radii are     0.9791  1.0103
  (the norm of the test charge is              1.0000)
       1 -84.7135       2 -84.7077       3 -84.7041       4 -84.7190       5 -42.5611
       6 -42.5684       7 -42.6029       8 -42.6233       9 -42.6070      10 -42.5555
      11 -42.5388      12 -42.5236      13 -42.5528      14 -42.5454      15 -42.5944
      16 -42.5196

 E-fermi :   6.6318     XC(G=0): -13.0448     alpha+bet :-14.0976

 spin component 1

 k-point     1 :       0.0000    0.0000    0.0000
  band No.  band energies     occupation
      1      -1.9940      1.00000
      2       0.6051      1.00000
      3       0.6303      1.00000
      4       1.6870      1.00000
      5       1.9825      1.00000
      6       1.9945      1.00000
      7       2.3168      1.00000
      8       2.3555      1.00000
      9       2.3749      1.00000
     10       2.3939      1.00000
     11       2.4273      1.00000
     12       2.4401      1.00000
     13       2.4824      1.00000
     14       2.5857      1.00000
     15       2.6122      1.00000
     16       2.6589      1.00000
     17       2.8356      1.00000
     18       2.8844      1.00000
     19       2.9046      1.00000
     20       2.9984      1.00000
     21       3.0558      1.00000
     22       3.0860      1.00000
     23       3.2036      1.00000
     24       3.2519      1.00000
     25       3.2714      1.00000
     26       3.3122      1.00000
     27       3.3190      1.00000
     28       3.4448      1.00000
     29       3.4624      1.00000
     30       3.5036      1.00000
     31       3.7875      1.00000
     32       3.8370      1.00000
     33       3.8991      1.00000
     34       3.9219      1.00000
     35       4.0747      1.00000
     36       4.0778      1.00000
     37       4.0934      1.00000
     38       4.1126      1.00000
     39       4.1435      1.00000
     40       4.1669      1.00000
     41       4.1843      1.00000
     42       4.2108      1.00000
     43       4.2165      1.00000
     44       4.2860      1.00000
     45       4.2968      1.00000
     46       4.3287      1.00000
     47       4.3390      1.00000
     48       4.4334      1.00000
     49       4.5048      1.00000
     50       4.7323      1.00000
     51       4.7809      1.00000
     52       4.8245      1.00000
     53       4.8541      1.00000
     54       4.8785      1.00000
     55       4.9243      1.00000
     56       4.9976      1.00000
     57       5.0213      1.00000
     58       5.0364      1.00000
     59       5.0553      1.00000
     60       5.1897      1.00000
[...]
     88       8.0936      0.00000
     89       9.0944      0.00000
     90       9.2194      0.00000
     91      10.2335      0.00000
     92      10.3061      0.00000
     93      11.6205      0.00000
     94      11.7069      0.00000
     95      12.2081      0.00000
     96      12.2812      0.00000
     97      12.7901      0.00000
     98      13.2780      0.00000
     99      13.3995      0.00000
    100      14.2477      0.00000
    101      14.4612      0.00000
    102      14.8107      0.00000

[...]

 spin component 2

[...]

 k-point    31 :      -0.2000   -0.2500    0.3333
  band No.  band energies     occupation
      1      -0.9269      1.00000
      2       0.4858      1.00000
      3       1.3363      1.00000
      4       1.5995      1.00000
      5       2.3797      1.00000
      6       2.6497      1.00000
      7       2.9608      1.00000
      8       3.2560      1.00000
      9       3.3463      1.00000
     10       3.5298      1.00000
     11       3.5601      1.00000
     12       3.5695      1.00000
     13       3.6751      1.00000
     14       3.8443      1.00000
     15       3.9438      1.00000
     16       3.9882      1.00000
     17       4.0113      1.00000
     18       4.1400      1.00000
     19       4.2318      1.00000
     20       4.4470      1.00000
     21       4.5129      1.00000
     22       4.6064      1.00000
     23       4.6202      1.00000
     24       4.6698      1.00000
     25       4.7446      1.00000
     26       4.7652      1.00000
     27       4.9100      1.00000
     28       4.9871      1.00000
     29       5.0183      1.00000
     30       5.0924      1.00000
     31       5.1702      1.00000
     32       5.2982      1.00000
     33       5.3777      1.00000
     34       5.3941      1.00000
     35       5.4864      1.00000
     36       5.5213      1.00000
     37       5.5801      1.00000
     38       5.6623      1.00000
     39       5.7375      1.00000
     40       5.8568      1.00000
     41       5.9002      1.00000
     42       5.9814      1.00000
     43       6.0642      1.00000
     44       6.1345      1.00000
     45       6.1666      1.00000
     46       6.2208      1.00000
     47       6.2446      1.00000
     48       6.3092      1.00000
     49       6.3878      1.00000
     50       6.4581      1.00000
     51       6.5252      1.01395
     52       6.6029      0.85713
     53       6.7345     -0.09105
     54       6.7676      0.00000
     55       6.8975      0.00000
     56       6.9074      0.00000
     57       6.9783      0.00000
     58       7.0872      0.00000
     59       7.1701      0.00000
     60       7.2302      0.00000
[...]
     88      10.1924      0.00000
     89      10.7241      0.00000
     90      10.8521      0.00000
     91      10.9751      0.00000
     92      11.0448      0.00000
     93      11.7937      0.00000
     94      12.2634      0.00000
     95      12.6621      0.00000
     96      13.7610      0.00000
     97      14.2876      0.00000
     98      14.4235      0.00000
     99      14.5099      0.00000
    100      14.8957      0.00000
    101      15.6463      0.00000
    102      16.0805      0.00000

 soft charge-density along one line, spin component           1
         0         1         2         3         4         5         6         7         8         9
 total charge-density along one line

 soft charge-density along one line, spin component           2
         0         1         2         3         4         5         6         7         8         9
 total charge-density along one line

------------------------ aborting loop because EDIFF is reached ----------------------------------------

 total charge

# of ion       s       p       d       tot
    1        0.511   0.518   8.310   9.339
    2        0.507   0.509   8.308   9.324
    3        0.508   0.508   8.308   9.324
    4        0.514   0.524   8.313   9.351
    5        0.481   0.516   6.210   7.206
    6        0.482   0.517   6.213   7.212
    7        0.479   0.509   6.206   7.195
    8        0.476   0.501   6.201   7.177
    9        0.480   0.509   6.212   7.201
   10        0.484   0.520   6.218   7.222
   11        0.492   0.535   6.235   7.263
   12        0.492   0.538   6.235   7.266
   13        0.482   0.519   6.215   7.216
   14        0.489   0.529   6.227   7.245
   15        0.482   0.513   6.212   7.207
   16        0.494   0.542   6.239   7.274
tot          7.855   8.306 107.862 124.023

 magnetization (x)

[...]

  FORCE on cell =-STRESS in cart. coord.  units (eV):
  Direction    XX          YY          ZZ          XY          YZ          ZX
  Alpha Z   923.24943   923.24943   923.24943
  Ewald   -3596.63625 -3543.07016 -3559.66465     4.51139    12.93225   -18.02892
  Hartree   689.99730   747.08045   726.52742     3.27041    14.29707   -16.98008
  E(xc)    -698.80387  -698.87596  -698.70210     0.08097    -0.09393    -0.06940
  Local     669.17653   558.41577   596.85598    -6.96752   -27.48295    34.58465
  n-local  -336.84146  -337.46955  -336.73453     0.26779    -0.17023     0.21017
  augment  1170.39429  1170.44044  1169.40182    -0.71186     0.33771     0.20921
  Kinetic  1184.15390  1183.02621  1182.18080    -0.83531     0.00423     0.62000
  Fock        0.00000     0.00000     0.00000     0.00000     0.00000     0.00000
  Total       4.68988     2.79662     3.11416    -0.38414    -0.17584     0.54563
  in kB      41.11345    24.51637    27.30008    -3.36751    -1.54150     4.78322

 VOLUME and BASIS-vectors are now :
  energy-cutoff  :      520.00
  volume of cell :      182.76
      direct lattice vectors                 reciprocal lattice vectors
     1.787500000  1.787500000 -3.575000000     0.069930070  0.069930070 -0.209790210
     0.000000000 -5.362500000 -1.787500000    -0.017482517 -0.157342657 -0.087412587
    -7.150000000  1.787500000 -1.787500000    -0.122377622  0.017482517 -0.052447552

  length of vectors
     4.378462915  5.652571318  7.583720228     0.231931804  0.180840567  0.134285765

 FORCES acting on ions
    electron-ion (+dipol)            ewald-force                    non-local-force                 convergence-correction
   0.707E+02 -.474E+01 0.436E+02   -.708E+02 0.468E+01 -.436E+02   0.363E+00 0.113E+00 0.376E+00   0.531E-03 0.323E-03 0.985E-03
   0.626E+02 -.257E+02 -.258E+01   -.628E+02 0.259E+02 0.277E+01   0.319E+00 -.254E+00 -.223E+00   0.222E-02 -.899E-03 0.651E-03
   -.517E+02 0.155E+02 -.195E+01   0.518E+02 -.156E+02 0.182E+01   -.320E+00 0.251E+00 0.220E+00   0.181E-02 -.148E-02 0.482E-03
   -.678E+02 0.171E+02 -.368E+02   0.679E+02 -.172E+02 0.368E+02   -.334E+00 -.103E+00 -.374E+00   0.531E-03 0.162E-02 0.103E-02
   -.398E+02 0.190E+02 -.248E+02   0.400E+02 -.191E+02 0.251E+02   -.733E+00 0.149E+00 -.315E+00   -.129E-02 -.557E-03 -.609E-03
   0.714E+02 -.155E+02 0.186E+02   -.716E+02 0.156E+02 -.186E+02   0.327E+00 0.949E-01 -.992E-01   0.943E-04 0.957E-04 -.140E-03
   0.548E+02 -.221E+01 0.372E+02   -.550E+02 0.207E+01 -.373E+02   0.587E+00 0.127E+00 0.465E+00   0.582E-04 -.192E-03 0.268E-03
   0.161E+02 0.151E+02 0.610E+01   -.161E+02 -.152E+02 -.624E+01   0.329E+00 -.186E+00 -.421E+00   0.156E-02 -.253E-03 0.203E-03
   -.611E+01 -.119E+02 0.176E+01   0.601E+01 0.119E+02 -.169E+01   -.419E+00 0.138E+00 0.371E+00   0.174E-02 0.507E-03 0.957E-03
   -.726E+02 0.232E+02 -.129E+02   0.728E+02 -.234E+02 0.129E+02   -.318E+00 -.121E+00 0.661E-01   -.331E-03 0.138E-03 -.239E-03
   -.575E+02 -.329E+01 -.255E+02   0.576E+02 0.341E+01 0.255E+02   -.433E+00 0.339E-01 0.236E+00   -.135E-02 0.399E-03 -.214E-03
   0.223E+02 -.181E+02 0.116E+02   -.226E+02 0.186E+02 -.115E+02   0.372E+00 0.118E+00 0.228E+00   -.147E-02 -.208E-03 -.878E-03
   0.367E+02 -.146E+02 0.240E+02   -.369E+02 0.146E+02 -.243E+02   0.724E+00 -.192E+00 0.298E+00   -.836E-03 0.306E-03 0.126E-03
   0.480E+02 -.823E+00 0.143E+02   -.480E+02 0.777E+00 -.142E+02   0.512E+00 -.116E-01 -.145E+00   -.840E-03 0.136E-04 -.689E-03
   -.577E+02 -.118E+02 -.391E+02   0.579E+02 0.121E+02 0.392E+02   -.536E+00 -.218E-02 -.474E+00   0.289E-03 -.832E-03 -.549E-03
   -.295E+02 0.186E+02 -.136E+02   0.298E+02 -.191E+02 0.134E+02   -.376E+00 -.132E+00 -.224E+00   -.175E-02 0.123E-02 -.711E-03
   -.659E-01 -.224E-01 0.151E-01   -.128E-12 0.711E-13 -.444E-13   0.649E-01 0.229E-01 -.156E-01   0.971E-03 0.212E-03 0.668E-03

 POSITION                                       TOTAL-FORCE (eV/Angst)
     -5.37181     -1.80057     -3.57778         0.232048      0.055083      0.329973
     -5.35729      0.00589     -1.79344         0.112940     -0.048743     -0.031680
     -3.56832     -3.58268     -3.57307        -0.216622      0.121447      0.096175
     -3.56891     -1.76402     -1.78217        -0.218797     -0.180118     -0.378438
     -1.78385     -3.55774     -1.79562        -0.545465      0.050629     -0.056266
     -5.36956     -0.02911     -5.35218         0.131386      0.239603     -0.103933
     -5.35580      1.78408     -3.59842         0.412885     -0.007428      0.380513
     -3.57483     -1.76481     -5.32895         0.337523     -0.231582     -0.559866
     -3.55903     -0.01541     -3.59805        -0.512691      0.142490      0.449487
     -1.77587     -1.75390     -3.57595        -0.109252     -0.344162     -0.005563
     -1.78994     -0.01456     -1.80821        -0.309526      0.157950      0.245842
      0.01159     -3.62291     -3.58373         0.070316      0.550480      0.356336
     -0.00892     -1.80159     -1.77383         0.544753     -0.137395      0.020569
     -0.01666     -5.35473     -1.79164         0.481030     -0.057858      0.014826
     -1.79745      1.76992     -3.55301        -0.340658      0.275587     -0.387721
     -0.01335      0.05216     -3.56395        -0.069872     -0.585983     -0.370254
    total drift:                               -0.000019      0.000745      0.000245

  FREE ENERGIE OF THE ION-ELECTRON SYSTEM (eV)
  free  energy   TOTEN  =      -119.61542319 eV

  energy  without entropy=     -119.61542319  energy(sigma->0) =     -119.61542319

 total charge

[...]

 magnetization (x)

# of ion       s       p       d       tot
    1       -0.030  -0.061   0.727   0.637
    2       -0.030  -0.058   0.729   0.641
    3       -0.030  -0.057   0.728   0.640
    4       -0.030  -0.061   0.723   0.632
    5       -0.014  -0.043   2.573   2.517
    6       -0.013  -0.041   2.565   2.511
    7       -0.010  -0.034   2.588   2.543
    8       -0.007  -0.030   2.605   2.568
    9       -0.008  -0.031   2.574   2.535
   10       -0.013  -0.042   2.548   2.493
   11       -0.015  -0.044   2.493   2.433
   12       -0.016  -0.051   2.490   2.423
   13       -0.014  -0.044   2.559   2.501
   14       -0.015  -0.043   2.517   2.458
   15       -0.011  -0.034   2.572   2.527
   16       -0.017  -0.051   2.479   2.412
tot         -0.273  -0.724  33.469  32.473

 BZINTS: Fermi energy:  6.631766;136.000000 electrons
         Band energy: 585.667656;  BLOECHL correction: -0.071400