 vasp.5.4.4.18Apr17-6-g9f103f2a35 (build Dec 15 2018 21:27:11) complex

 executed on             LinuxIFC date 2022.03.01  22:40:40

 INCAR:
 POTCAR:    PAW_PBE Fe 06Sep2000
 POTCAR:    PAW_PBE O 08Apr2002

 POTCAR:    PAW_PBE Fe 06Sep2000
   VRHFIN =Fe:  d7 s1

   TITEL  = PAW_PBE Fe 06Sep2000
   POMASS =   55.847; ZVAL   =    8.000    mass and valenz
   ENMAX  =  267.882; ENMIN  =  200.911 eV

 POTCAR:    PAW_PBE O 08Apr2002
   VRHFIN =O: s2p4

   TITEL  = PAW_PBE O 08Apr2002
   POMASS =   16.000; ZVAL   =    6.000    mass and valenz
   ENMAX  =  400.000; ENMIN  =  300.000 eV

 Optimization of the real space projectors (new method)

 maximal supplied QI-value         = 16.25
 optimisation between [QCUT,QGAM] = [ 11.54, 23.24] = [ 37.28,151.24] Ry
 Optimized for a Real-space Cutoff    1.53 Angstroem

   l    n(q)    QCUT    max X(q) W(low)/X(q) W(high)/X(q)  e(spline)
   2     10    11.539    80.901    0.11E-03    0.14E-03    0.21E-06
   2     10    11.539    75.754    0.11E-03    0.14E-03    0.22E-06
   0     11    11.539    58.752    0.52E-04    0.18E-04    0.33E-06
   0     11    11.539    30.679    0.44E-04    0.16E-04    0.30E-06
   1     10    11.539    17.977    0.53E-04    0.29E-04    0.13E-06
   1     10    11.539    13.559    0.44E-04    0.25E-04    0.11E-06
 Optimization of the real space projectors (new method)

 maximal supplied QI-value         = 24.76
 optimisation between [QCUT,QGAM] = [ 11.64, 23.27] = [ 37.91,151.63] Ry
 Optimized for a Real-space Cutoff    1.14 Angstroem

   l    n(q)    QCUT    max X(q) W(low)/X(q) W(high)/X(q)  e(spline)
   0      8    11.635    20.381    0.10E-03    0.33E-03    0.24E-06
   0      8    11.635    15.268    0.11E-03    0.35E-03    0.26E-06
   1      7    11.635     5.964    0.24E-03    0.31E-03    0.30E-06
   1      7    11.635     5.382    0.22E-03    0.25E-03    0.26E-06
  PAW_PBE Fe 06Sep2000                  :
  PAW_PBE O 08Apr2002                   :

 POSCAR: POSCAR
  positions in direct lattice
  velocities in cartesian coordinates
 exchange correlation table for  LEXCH =        8
   RHO(1)=    0.500       N(1)  =     2000
   RHO(2)=  100.500       N(2)  =     4000

 VTST: version 3.2, (02/03/18)

 CHAIN: initializing optimizer

 OPT: Using VASP Dynamics algorithm
 CHAIN: Read ICHAIN            0

 POSCAR: POSCAR
  positions in direct lattice
  velocities in cartesian coordinates

 ion  position               nearest neighbor table
   1  0.087  0.163  0.095-   5 2.48  13 2.48  17 2.48  49 2.48  31 2.48   3 2.48  29 2.87  53 2.87
                            15 2.87  19 2.87
   2  0.087  0.162  0.286-  32 2.45   4 2.46  31 2.46   3 2.46  50 2.48  14 2.48  18 2.48   6 2.48
                            16 2.80  20 2.80  15 2.85  19 2.85  54 2.87  30 2.87
   3  0.212  0.038  0.191-   2 2.46  54 2.46  15 2.48   7 2.48  51 2.48  19 2.48  53 2.48   1 2.48
                             6 2.82  50 2.83  31 2.87  55 2.87  49 2.87   5 2.87
   4  0.216  0.041  0.381-  65 2.19  54 2.45   2 2.46  16 2.46  52 2.47  20 2.51   8 2.51   6 2.84
                            56 2.87  32 2.87  50 2.91
   5  0.337  0.163  0.095-   1 2.48   9 2.48  21 2.48  53 2.48   7 2.48  19 2.48  17 2.87  57 2.87
                             3 2.87  23 2.87
   6  0.337  0.162  0.284-   7 2.43  19 2.43  54 2.48  10 2.48   2 2.48  22 2.48  20 2.50   8 2.50
                             3 2.82  23 2.82   4 2.84  24 2.84  58 2.87  18 2.87
   7  0.462  0.038  0.191-   6 2.43  58 2.43  11 2.48   3 2.48  55 2.48  23 2.48  57 2.48   5 2.48
                            54 2.85  10 2.85  19 2.87  59 2.87  53 2.87   9 2.87
   8  0.472  0.028  0.377-  65 1.85  58 2.37  12 2.47  56 2.47   6 2.50  24 2.51   4 2.51  60 2.65
                            10 2.80  54 2.80  20 3.08
   9  0.587  0.163  0.095-   5 2.48  13 2.48  25 2.48  57 2.48  11 2.48  23 2.48  21 2.87  61 2.87
                             7 2.87  27 2.87
  10  0.587  0.163  0.286-  12 2.45  24 2.46  23 2.47  11 2.47  58 2.48  14 2.48   6 2.48  26 2.48
                            28 2.80   8 2.80   7 2.85  27 2.85  22 2.87  62 2.87
  11  0.712  0.038  0.191-  62 2.47  10 2.47  15 2.48   7 2.48  59 2.48  27 2.48  61 2.48   9 2.48
                            14 2.82  58 2.82  23 2.87  63 2.87  57 2.87  13 2.87
  12  0.716  0.041  0.381-  66 2.19  10 2.45  62 2.46   8 2.47  60 2.47  28 2.51  16 2.51  14 2.84
                            24 2.87  64 2.87  58 2.91
  13  0.837  0.163  0.095-   1 2.48   9 2.48  29 2.48  61 2.48  15 2.48  27 2.48  49 2.87  25 2.87
                            11 2.87  31 2.87
  14  0.837  0.163  0.284-  27 2.43  15 2.43  62 2.48  10 2.48   2 2.48  30 2.48  16 2.50  28 2.50
                            11 2.82  31 2.82  32 2.84  12 2.84  26 2.87  50 2.87
  15  0.962  0.038  0.191-  14 2.43  50 2.43   3 2.48  11 2.48  31 2.48  63 2.48  13 2.48  49 2.48
                             2 2.85  62 2.85  27 2.87  51 2.87   1 2.87  61 2.87
  16  0.972  0.028  0.377-  66 1.85  50 2.37   4 2.46  64 2.47  14 2.50  32 2.51  12 2.51  52 2.65
                            62 2.79   2 2.80  28 3.09
  17  0.087  0.413  0.095-  21 2.48  29 2.48   1 2.48  33 2.48  19 2.48  47 2.48  45 2.87   5 2.87
                            31 2.87  35 2.87
  18  0.087  0.413  0.284-  48 2.37  20 2.37  19 2.43  47 2.43  30 2.48   2 2.48  34 2.48  22 2.48
                            31 2.82  35 2.82  46 2.87   6 2.87  32 2.91  36 2.91
  19  0.212  0.288  0.191-   6 2.43  18 2.43  23 2.48  31 2.48   3 2.48  35 2.48   5 2.48  17 2.48
                            22 2.85   2 2.85   7 2.87  47 2.87  21 2.87   1 2.87
  20  0.203  0.297  0.377-  65 1.85  18 2.37  32 2.47  36 2.47   6 2.50   4 2.51  24 2.51  48 2.65
                             2 2.80  22 2.80   8 3.08
  21  0.337  0.413  0.095-  17 2.48  25 2.48   5 2.48  37 2.48  35 2.48  23 2.48   9 2.87  33 2.87
                            19 2.87  39 2.87
  22  0.337  0.413  0.286-  24 2.45  36 2.45  35 2.47  23 2.47  18 2.48  26 2.48   6 2.48  38 2.48
                            40 2.80  20 2.80  19 2.85  39 2.85  10 2.87  34 2.87
  23  0.462  0.288  0.191-  10 2.47  22 2.47  19 2.48  27 2.48   7 2.48  39 2.48  21 2.48   9 2.48
                             6 2.82  26 2.82  35 2.87  11 2.87   5 2.87  25 2.87
  24  0.459  0.285  0.381-  65 2.20  22 2.45  10 2.46  28 2.47  40 2.47  20 2.51   8 2.51   6 2.84
                            36 2.86  12 2.87  26 2.91
  25  0.587  0.413  0.095-  21 2.48  29 2.48   9 2.48  41 2.48  39 2.48  27 2.48  13 2.87  37 2.87
                            23 2.87  43 2.87
  26  0.587  0.413  0.284-  28 2.37  40 2.37  39 2.43  27 2.43  30 2.48  42 2.48  10 2.48  22 2.48
                            43 2.82  23 2.82  14 2.87  38 2.87  44 2.91  24 2.91
  27  0.712  0.288  0.191-  14 2.43  26 2.43  23 2.48  31 2.48  11 2.48  43 2.48  25 2.48  13 2.48
                            30 2.85  10 2.85  39 2.87  15 2.87   9 2.87  29 2.87
  28  0.703  0.297  0.377-  66 1.85  26 2.37  24 2.47  44 2.47  14 2.50  12 2.51  32 2.51  40 2.65
                            10 2.80  30 2.80  16 3.09
  29  0.837  0.413  0.095-  17 2.48  25 2.48  13 2.48  45 2.48  43 2.48  31 2.48   1 2.87  41 2.87
                            27 2.87  47 2.87
  30  0.837  0.413  0.286-  32 2.45  44 2.45  43 2.47  31 2.47  26 2.48  18 2.48  46 2.48  14 2.48
                            48 2.80  28 2.80  27 2.85  47 2.85  42 2.87   2 2.87
  31  0.962  0.288  0.191-   2 2.46  30 2.47  27 2.48  19 2.48  15 2.48  47 2.48   1 2.48  29 2.48
                            14 2.82  18 2.82  43 2.87   3 2.87  17 2.87  13 2.87
  32  0.959  0.284  0.381-  66 2.20   2 2.45  30 2.45  20 2.47  48 2.47  16 2.51  28 2.51  14 2.84
                             4 2.87  44 2.87  18 2.91
  33  0.087  0.663  0.095-  37 2.48  45 2.48  17 2.48  49 2.48  35 2.48  63 2.48  61 2.87  21 2.87
                            47 2.87  51 2.87
  34  0.087  0.663  0.286-  64 2.46  36 2.46  35 2.47  63 2.47  50 2.48  46 2.48  38 2.48  18 2.48
                            48 2.80  52 2.80  51 2.85  47 2.85  22 2.87  62 2.87
  35  0.212  0.538  0.191-  34 2.47  22 2.47  39 2.48  47 2.48  19 2.48  51 2.48  21 2.48  33 2.48
                            38 2.82  18 2.82  23 2.87  63 2.87  37 2.87  17 2.87
  36  0.216  0.541  0.381-  68 2.20  22 2.45  34 2.46  48 2.47  20 2.47  40 2.51  52 2.51  38 2.84
                            24 2.86  64 2.87  18 2.91
  37  0.337  0.663  0.095-  33 2.48  41 2.48  21 2.48  53 2.48  51 2.48  39 2.48  25 2.87  49 2.87
                            35 2.87  55 2.87
  38  0.337  0.663  0.284-  51 2.43  39 2.43  54 2.48  34 2.48  42 2.48  22 2.48  40 2.50  52 2.50
                            55 2.82  35 2.82  56 2.84  36 2.84  50 2.87  26 2.87
  39  0.462  0.538  0.191-  38 2.43  26 2.43  35 2.48  43 2.48  23 2.48  55 2.48  37 2.48  25 2.48
                            22 2.85  42 2.85  51 2.87  27 2.87  21 2.87  41 2.87
  40  0.472  0.528  0.377-  68 1.85  26 2.37  44 2.47  24 2.47  38 2.50  56 2.51  36 2.51  28 2.65
                            22 2.80  42 2.80  52 3.08
  41  0.587  0.663  0.095-  37 2.48  45 2.48  25 2.48  57 2.48  55 2.48  43 2.48  29 2.87  53 2.87
                            39 2.87  59 2.87
  42  0.588  0.663  0.286-  44 2.45  56 2.46  55 2.46  43 2.46  58 2.48  46 2.48  26 2.48  38 2.48
                            60 2.80  40 2.80  59 2.85  39 2.85  54 2.87  30 2.87
  43  0.712  0.538  0.191-  42 2.46  30 2.47  39 2.48  47 2.48  27 2.48  59 2.48  41 2.48  29 2.48
                            46 2.82  26 2.82  55 2.87  31 2.87  25 2.87  45 2.87
  44  0.716  0.541  0.381-  67 2.20  42 2.45  30 2.45  40 2.47  28 2.47  60 2.51  48 2.51  46 2.84
                            56 2.87  32 2.87  26 2.91
  45  0.837  0.663  0.095-  33 2.48  41 2.48  29 2.48  61 2.48  59 2.48  47 2.48  17 2.87  57 2.87
                            43 2.87  63 2.87
  46  0.838  0.663  0.284-  47 2.43  59 2.43  62 2.48  34 2.48  42 2.48  30 2.48  60 2.50  48 2.50
                            63 2.82  43 2.82  44 2.84  64 2.84  18 2.87  58 2.87
  47  0.962  0.538  0.191-  46 2.43  18 2.43  43 2.48  35 2.48  31 2.48  63 2.48  17 2.48  45 2.48
                            30 2.85  34 2.85  59 2.87  19 2.87  33 2.87  29 2.87
  48  0.972  0.528  0.377-  67 1.85  18 2.37  36 2.47  32 2.47  46 2.50  64 2.51  44 2.51  20 2.65
                            34 2.80  30 2.80  60 3.09
  49  0.087  0.913  0.095-  53 2.48  61 2.48   1 2.48  33 2.48  15 2.48  51 2.48  37 2.87  13 2.87
                             3 2.87  63 2.87
  50  0.087  0.912  0.284-  16 2.37  52 2.37  51 2.43  15 2.43  34 2.48  62 2.48   2 2.48  54 2.48
                            63 2.82   3 2.83  38 2.87  14 2.87   4 2.91  64 2.91
  51  0.212  0.788  0.191-  38 2.43  50 2.43  55 2.48  63 2.48   3 2.48  35 2.48  49 2.48  37 2.48
                            54 2.85  34 2.85  39 2.87  15 2.87  53 2.87  33 2.87
  52  0.203  0.797  0.377-  68 1.85  50 2.37  64 2.47   4 2.47  38 2.50  56 2.51  36 2.51  16 2.65
                            34 2.80  54 2.80  40 3.08
  53  0.337  0.913  0.095-  49 2.48  57 2.48   5 2.48  37 2.48  55 2.48   3 2.48  41 2.87   1 2.87
                             7 2.87  51 2.87
[...]
   -.355E+00 0.709E+00 0.726E+03   0.355E+00 -.703E+00 -.726E+03   0.257E-02 -.121E-01 -.345E+00   0.677E-04 -.154E-04 -.367E-03
   -.578E+02 0.806E+02 -.168E+04   0.592E+02 -.826E+02 0.168E+04   -.145E+01 0.201E+01 0.222E+01   -.742E-04 0.959E-04 0.319E-04
   -.527E-01 -.132E-01 0.191E+04   0.457E-01 0.106E-01 -.190E+04   0.575E-02 0.266E-02 -.349E+01   0.131E-03 0.180E-04 -.330E-03
   -.370E+00 -.214E-01 -.468E+03   0.375E+00 0.164E-01 0.468E+03   0.514E-02 0.571E-02 0.124E+00   -.311E-04 -.666E-04 -.324E-03
   0.172E+00 -.599E+00 0.725E+03   -.167E+00 0.590E+00 -.726E+03   -.882E-02 0.894E-02 -.347E+00   0.345E-04 0.112E-04 -.552E-03
   0.574E+02 -.817E+02 -.168E+04   -.588E+02 0.837E+02 0.168E+04   0.143E+01 -.201E+01 0.220E+01   -.356E-04 -.265E-05 -.120E-05
   0.292E-02 -.224E-03 0.191E+04   -.303E-03 0.417E-03 -.190E+04   -.160E-02 -.137E-02 -.337E+01   0.129E-04 0.355E-04 -.279E-03
   -.239E-01 0.134E-01 -.500E+03   0.225E-01 -.149E-01 0.499E+03   0.185E-02 0.210E-02 0.496E+00   0.276E-03 0.116E-03 -.226E-03
   -.196E+00 -.230E+00 0.721E+03   0.238E+00 0.261E+00 -.721E+03   -.290E-01 -.213E-01 -.540E+00   0.915E-05 0.188E-03 -.522E-03
   -.474E+02 -.336E+02 -.176E+04   0.495E+02 0.351E+02 0.175E+04   -.215E+01 -.154E+01 0.427E+01   0.370E-03 0.258E-03 -.287E-06
   0.513E-01 0.117E-01 0.191E+04   -.459E-01 -.102E-01 -.190E+04   -.352E-02 -.160E-02 -.348E+01   -.135E-03 -.856E-05 -.253E-03
   0.390E+00 0.245E-01 -.468E+03   -.394E+00 -.186E-01 0.468E+03   -.587E-02 -.636E-02 0.119E+00   0.193E-05 0.142E-03 0.450E-04
   0.535E+00 -.537E+00 0.726E+03   -.531E+00 0.531E+00 -.726E+03   -.821E-02 0.886E-02 -.342E+00   -.187E-04 0.108E-03 -.328E-03
   0.566E+02 -.818E+02 -.168E+04   -.580E+02 0.838E+02 0.168E+04   0.141E+01 -.204E+01 0.223E+01   0.192E-04 0.667E-04 0.256E-04
   -.198E-02 -.648E-03 0.191E+04   0.611E-03 -.119E-03 -.190E+04   0.485E-03 0.650E-03 -.334E+01   -.147E-04 -.361E-04 -.280E-03
   0.780E-02 -.551E-02 -.500E+03   -.775E-02 0.676E-02 0.499E+03   -.757E-04 -.218E-02 0.467E+00   -.256E-03 -.637E-04 -.126E-03
   -.255E+00 -.242E+00 0.722E+03   0.299E+00 0.271E+00 -.721E+03   -.323E-01 -.219E-01 -.538E+00   -.242E-04 -.439E-04 -.400E-03
   -.472E+02 -.340E+02 -.176E+04   0.493E+02 0.355E+02 0.175E+04   -.216E+01 -.154E+01 0.425E+01   -.362E-03 -.177E-03 0.443E-04
   -.235E-01 0.148E-01 0.191E+04   0.219E-01 -.126E-01 -.190E+04   -.117E-02 -.132E-02 -.336E+01   0.120E-03 -.380E-04 -.283E-03
   -.160E+00 0.280E+00 -.500E+03   0.159E+00 -.280E+00 0.500E+03   -.190E-02 0.646E-03 0.496E+00   0.140E-03 0.109E-03 -.233E-03
   0.201E+00 0.224E+00 0.721E+03   -.243E+00 -.254E+00 -.721E+03   0.295E-01 0.211E-01 -.538E+00   0.133E-03 -.335E-04 -.573E-03
   0.477E+02 0.339E+02 -.176E+04   -.499E+02 -.355E+02 0.175E+04   0.214E+01 0.154E+01 0.426E+01   0.403E-03 0.182E-03 0.696E-04
   0.328E-01 0.293E-01 0.191E+04   -.276E-01 -.276E-01 -.190E+04   -.279E-02 0.254E-02 -.341E+01   -.122E-03 -.140E-03 -.302E-03
   0.159E+00 0.384E+00 -.466E+03   -.152E+00 -.384E+00 0.465E+03   -.119E-01 -.120E-01 0.129E+01   0.177E-03 -.108E-03 -.226E-04
   -.163E+00 0.592E+00 0.725E+03   0.156E+00 -.582E+00 -.726E+03   0.908E-02 -.951E-02 -.343E+00   -.207E-05 -.606E-04 -.346E-03
   -.578E+02 0.815E+02 -.168E+04   0.592E+02 -.835E+02 0.168E+04   -.143E+01 0.201E+01 0.220E+01   0.131E-03 0.653E-04 -.504E-05
   0.185E-01 0.857E-03 0.191E+04   -.200E-01 -.826E-03 -.190E+04   0.264E-02 -.261E-02 -.334E+01   -.110E-03 -.166E-03 -.252E-03
   0.208E+00 0.954E-01 -.499E+03   -.210E+00 -.956E-01 0.499E+03   -.851E-02 -.301E-02 0.478E+00   -.150E-03 -.198E-03 -.521E-04
   0.256E+00 0.238E+00 0.722E+03   -.300E+00 -.267E+00 -.721E+03   0.306E-01 0.202E-01 -.539E+00   -.115E-03 -.387E-04 -.335E-03
   0.472E+02 0.339E+02 -.176E+04   -.494E+02 -.355E+02 0.175E+04   0.217E+01 0.154E+01 0.425E+01   -.375E-03 -.106E-03 -.105E-04
   -.275E-01 -.112E-01 0.191E+04   0.251E-01 0.103E-01 -.190E+04   0.187E-02 -.305E-03 -.342E+01   0.108E-03 -.937E-04 -.259E-03
   0.186E-01 0.269E+00 -.466E+03   -.292E-01 -.280E+00 0.464E+03   0.336E-02 0.378E-02 0.131E+01   -.170E-03 0.239E-04 -.199E-03
   -.534E+00 0.535E+00 0.726E+03   0.529E+00 -.529E+00 -.726E+03   0.850E-02 -.914E-02 -.346E+00   -.931E-05 -.515E-05 -.514E-03
   -.565E+02 0.818E+02 -.168E+04   0.579E+02 -.838E+02 0.168E+04   -.141E+01 0.204E+01 0.223E+01   -.150E-03 -.596E-05 0.518E-04
   0.115E-01 0.312E-01 0.191E+04   -.806E-02 -.262E-01 -.190E+04   -.287E-03 -.318E-02 -.349E+01   0.262E-05 -.298E-04 -.283E-03
   -.138E+00 0.120E+00 -.468E+03   0.144E+00 -.120E+00 0.468E+03   0.282E-03 0.427E-02 0.117E+00   -.461E-05 0.885E-04 -.424E-04
   0.468E+00 -.436E+00 0.726E+03   -.463E+00 0.429E+00 -.726E+03   -.872E-02 0.983E-02 -.342E+00   -.178E-04 -.106E-04 -.457E-03
   0.575E+02 -.811E+02 -.168E+04   -.589E+02 0.831E+02 0.168E+04   0.143E+01 -.203E+01 0.222E+01   0.120E-03 -.497E-04 0.803E-04
   -.524E-03 0.108E-03 0.191E+04   -.465E-03 -.262E-03 -.190E+04   0.948E-03 -.659E-04 -.334E+01   -.204E-03 0.143E-04 -.279E-03
   -.189E-01 0.229E-01 -.499E+03   0.179E-01 -.216E-01 0.499E+03   0.894E-03 -.190E-02 0.478E+00   -.128E-03 -.151E-03 -.157E-03
   -.234E+00 -.222E+00 0.722E+03   0.275E+00 0.252E+00 -.721E+03   -.266E-01 -.192E-01 -.537E+00   -.896E-04 -.158E-03 -.313E-03
   -.479E+02 -.336E+02 -.176E+04   0.501E+02 0.351E+02 0.175E+04   -.216E+01 -.152E+01 0.424E+01   -.161E-03 -.352E-03 0.573E-04
   -.130E-01 -.318E-01 0.191E+04   0.788E-02 0.255E-01 -.190E+04   0.248E-02 0.432E-02 -.349E+01   0.120E-05 0.356E-04 -.318E-03
   0.156E+00 -.969E-01 -.468E+03   -.161E+00 0.979E-01 0.468E+03   -.109E-02 -.528E-02 0.122E+00   0.252E-04 -.149E-03 -.156E-03
   0.357E+00 -.709E+00 0.726E+03   -.357E+00 0.704E+00 -.726E+03   -.231E-02 0.117E-01 -.349E+00   0.351E-04 -.124E-03 -.317E-03
   0.579E+02 -.805E+02 -.168E+04   -.593E+02 0.825E+02 0.168E+04   0.145E+01 -.201E+01 0.221E+01   -.989E-04 -.508E-04 0.311E-04
   0.153E-02 -.289E-04 0.191E+04   0.717E-03 -.475E-03 -.190E+04   -.209E-02 -.616E-03 -.337E+01   0.204E-03 -.311E-05 -.264E-03
   0.353E-02 -.697E-02 -.500E+03   -.361E-02 0.551E-02 0.500E+03   0.616E-03 0.194E-02 0.488E+00   0.115E-03 0.105E-03 -.122E-03
   -.345E+00 -.202E+00 0.721E+03   0.389E+00 0.230E+00 -.721E+03   -.279E-01 -.202E-01 -.543E+00   0.751E-04 0.227E-04 -.495E-03
   -.486E+02 -.342E+02 -.176E+04   0.507E+02 0.357E+02 0.175E+04   -.214E+01 -.151E+01 0.423E+01   0.134E-03 0.246E-03 0.475E-04
   -.608E-01 -.393E+00 -.169E+04   0.665E-01 0.424E+00 0.171E+04   -.117E-02 -.353E-01 -.230E+02   0.294E-04 -.180E-04 0.199E-03
   -.551E+00 -.756E+00 -.169E+04   0.616E+00 0.817E+00 0.171E+04   -.669E-01 -.500E-01 -.230E+02   -.148E-04 0.194E-04 -.164E-03
   0.618E+00 0.725E+00 -.169E+04   -.685E+00 -.784E+00 0.171E+04   0.692E-01 0.466E-01 -.229E+02   -.147E-03 0.452E-04 0.110E-03
   -.211E+00 0.212E+00 -.169E+04   0.232E+00 -.218E+00 0.171E+04   -.250E-01 0.115E-01 -.230E+02   0.149E-03 -.473E-04 -.191E-03
   0.532E-01 0.455E-01 0.922E+02   -.422E-12 0.535E-12 0.364E-11   -.463E-01 -.550E-01 -.922E+02   0.143E-04 0.545E-06 -.131E-01

 POSITION                                       TOTAL-FORCE (eV/Angst)
      1.40594      1.52230      2.00000        -0.001471      0.001267      0.357082
      1.40398      1.52099      6.03172         0.008939      0.002848      0.003852
      2.23340      0.35210      4.02685        -0.015438     -0.011633     -0.291350
      2.27528      0.38078      8.02442         0.000149      0.002274     -0.035912
      3.88832      1.52230      2.00000        -0.002090     -0.003402      0.282691
      3.88736      1.52117      5.98657         0.005974      0.011848      0.013931
      4.71578      0.35210      4.02685         0.002745     -0.002536     -0.395853
      4.77920      0.26400      7.95756        -0.016213      0.023490      0.020476
      6.37069      1.52230      2.00000         0.001335      0.000762      0.352269
      6.36970      1.52319      6.03378         0.004852     -0.000116     -0.001592
      7.19815      0.35210      4.02685        -0.015527     -0.007299     -0.286665
      7.24040      0.38385      8.02645        -0.004796     -0.001029     -0.035210
      8.85307      1.52230      2.00000         0.002261      0.001555      0.284986
      8.85131      1.52148      5.98541         0.008267      0.007427      0.021580
      9.68053      0.35210      4.02685         0.001895     -0.006244     -0.394741
      9.74366      0.26147      7.95505        -0.015874      0.013972      0.022146
      2.23340      3.86271      2.00000        -0.001230      0.000189      0.363549
      2.23216      3.86178      5.99285         0.009967      0.000773      0.025459
      3.06086      2.69251      4.02685        -0.003077     -0.000300     -0.397130
      2.99680      2.77948      7.95478         0.014623     -0.009721      0.022847
      4.71578      3.86271      2.00000         0.000921     -0.001005      0.353998
      4.71559      3.86268      6.03319         0.000690      0.000787     -0.001177
      5.54324      2.69251      4.02685         0.012834      0.009683     -0.289191
      5.49992      2.66451      8.02623        -0.002863     -0.007577     -0.033500
      7.19815      3.86271      2.00000         0.001612     -0.000041      0.364770
      7.19911      3.86365      5.99277        -0.009877     -0.000249      0.021383
      8.02561      2.69251      4.02685        -0.004195      0.003426     -0.396709
      7.96121      2.78367      7.95544         0.013613     -0.027585      0.028441
      9.68053      3.86271      2.00000        -0.001002     -0.000013      0.356322
      9.68036      3.86272      6.03257        -0.000386     -0.000851     -0.006057
     10.50799      2.69251      4.02685         0.011146      0.007413     -0.290954
     10.46432      2.66093      8.02284         0.001077      0.003575     -0.036552
      3.06086      6.20311      2.00000        -0.002730      0.000924      0.352843
      3.06153      6.20221      6.03382        -0.002834      0.000523     -0.001679
      3.88832      5.03291      4.02685        -0.012282     -0.009010     -0.288564
      3.93093      5.06065      8.02637        -0.001937      0.004768     -0.036662
      5.54324      6.20311      2.00000         0.002226      0.004201      0.286965
      5.54389      6.20421      5.98658        -0.005420     -0.011838      0.011936
      6.37069      5.03291      4.02685         0.002614      0.000236     -0.396237
      6.43410      4.94586      7.95482        -0.012697      0.006801      0.020988
      8.02561      6.20311      2.00000         0.001006     -0.002607      0.356496
      8.02726      6.20440      6.03166        -0.010331     -0.003209      0.004157
      8.85307      5.03291      4.02685        -0.012760     -0.008252     -0.291356
      8.89604      5.06469      8.02292         0.003046     -0.000249     -0.032848
     10.50799      6.20311      2.00000        -0.000529     -0.001167      0.280833
     10.50939      6.20394      5.98541        -0.007545     -0.007696      0.023689
     11.33544      5.03291      4.02685         0.003853     -0.003212     -0.397718
     11.39924      4.94194      7.95541        -0.014946      0.028777      0.028560
      3.88832      8.54352      2.00000         0.003034      0.001984      0.361487
      3.88745      8.54203      5.99387         0.006947      0.004332      0.016458
      4.71578      7.37332      4.02685        -0.003287      0.002537     -0.394479
      4.65167      7.46131      7.95756         0.015687     -0.022774      0.020436
      6.37069      8.54352      2.00000        -0.000346     -0.000065      0.359844
      6.37050      8.54348      6.03242        -0.000337     -0.000604      0.000042
      7.19815      7.37332      4.02685         0.013901      0.010858     -0.291537
      7.15548      7.34439      8.02430         0.003824      0.001148     -0.039751
      8.85307      8.54352      2.00000        -0.002713     -0.001828      0.362246
      8.85363      8.54505      5.99381        -0.006813     -0.004285      0.020278
      9.68053      7.37332      4.02685        -0.002227      0.006379     -0.395923
      9.61669      7.46416      7.95510         0.017107     -0.016108      0.023480
     11.33544      8.54352      2.00000         0.000265     -0.000983      0.354531
     11.33525      8.54354      6.03436         0.000544      0.000731     -0.007309
     12.16290      7.37332      4.02685         0.016021      0.008039     -0.286758
     12.11983      7.34183      8.02633         0.000464     -0.001749     -0.032221
      3.88269      1.51905      8.98443         0.004566     -0.004266      0.003094
      8.84719      1.51805      8.98091        -0.001960      0.011484      0.000540
     10.51328      6.20740      8.98085         0.001957     -0.011310      0.003517
      5.54407      6.20319      8.98453        -0.004226      0.005802     -0.002566
    total drift:                                0.006917     -0.009510     -0.020616

  FREE ENERGIE OF THE ION-ELECTRON SYSTEM (eV)
  free  energy   TOTEN  =      -545.64333934 eV

  energy  without entropy=     -545.64333934  energy(sigma->0) =     -545.64333934

 stress matrix after NEB project (eV)
    -44.51332     -1.85640      0.00800
     -1.85640    -43.23252      0.00042
      0.00800      0.00042    -11.34704
  FORCES: max atom, RMS     0.043211    0.019009
  FORCE total and by dimension    0.156756    0.039751
  Stress total and by dimension   63.135840   44.513319
 writing wavefunctions

 total charge

[...]

 magnetization (x)

# of ion       s       p       d       tot
    1       -0.004  -0.015   2.680   2.661
    2       -0.014  -0.057   2.467   2.395
    3       -0.016  -0.057   2.481   2.408
    4       -0.010  -0.019   2.696   2.667
    5       -0.006  -0.015   2.688   2.667
    6       -0.018  -0.059   2.477   2.400
    7       -0.016  -0.059   2.447   2.372
    8       -0.003  -0.027   2.272   2.242
    9       -0.004  -0.014   2.679   2.660
   10       -0.015  -0.057   2.469   2.398
   11       -0.016  -0.057   2.481   2.408
   12       -0.010  -0.018   2.694   2.666
   13       -0.006  -0.015   2.688   2.667
   14       -0.018  -0.059   2.475   2.398
   15       -0.016  -0.059   2.448   2.372
   16       -0.003  -0.028   2.270   2.239
   17       -0.006  -0.015   2.670   2.649
   18       -0.012  -0.059   2.252   2.181
   19       -0.016  -0.059   2.448   2.373
   20       -0.003  -0.027   2.273   2.242
   21       -0.004  -0.015   2.678   2.660
   22       -0.015  -0.057   2.473   2.402
   23       -0.016  -0.057   2.481   2.409
   24       -0.010  -0.018   2.701   2.672
   25       -0.006  -0.015   2.671   2.649
   26       -0.012  -0.059   2.251   2.180
   27       -0.016  -0.059   2.446   2.371
   28       -0.003  -0.028   2.269   2.238
   29       -0.005  -0.015   2.679   2.660
   30       -0.015  -0.057   2.467   2.396
   31       -0.016  -0.057   2.480   2.408
   32       -0.010  -0.019   2.698   2.669
   33       -0.004  -0.014   2.679   2.660
   34       -0.015  -0.057   2.470   2.398
   35       -0.016  -0.057   2.481   2.408
   36       -0.010  -0.018   2.699   2.670
   37       -0.006  -0.015   2.687   2.667
   38       -0.018  -0.059   2.476   2.399
   39       -0.016  -0.059   2.448   2.373
   40       -0.003  -0.027   2.269   2.238
   41       -0.004  -0.015   2.680   2.660
   42       -0.014  -0.057   2.467   2.395
   43       -0.016  -0.057   2.481   2.408
   44       -0.010  -0.019   2.698   2.669
   45       -0.006  -0.015   2.688   2.668
   46       -0.018  -0.059   2.476   2.399
   47       -0.016  -0.059   2.447   2.372
   48       -0.003  -0.027   2.272   2.242
   49       -0.006  -0.015   2.671   2.649
   50       -0.012  -0.059   2.251   2.180
   51       -0.016  -0.059   2.447   2.372
   52       -0.003  -0.028   2.269   2.238
   53       -0.004  -0.015   2.680   2.660
   54       -0.015  -0.057   2.467   2.395
   55       -0.016  -0.057   2.480   2.407
   56       -0.010  -0.019   2.697   2.668
   57       -0.006  -0.015   2.670   2.649
   58       -0.012  -0.059   2.251   2.180
   59       -0.016  -0.059   2.448   2.373
   60       -0.003  -0.027   2.274   2.243
   61       -0.004  -0.015   2.679   2.660
   62       -0.015  -0.057   2.472   2.400
   63       -0.016  -0.057   2.482   2.409
   64       -0.010  -0.018   2.695   2.666
   65        0.004   0.041   0.000   0.045
   66        0.004   0.039   0.000   0.043
   67        0.004   0.040   0.000   0.045
   68        0.004   0.039   0.000   0.043
tot         -0.665  -2.302 160.700 157.733

 BZINTS: Fermi energy: -0.622655;536.000000 electrons
         Band energy:***********;  BLOECHL correction: -0.034858