 vasp.5.4.4.18Apr17-6-g9f103f2a35 (build Sep 06 2021 19:49:22) complex

 executed on             LinuxIFC date 2021.12.28  18:59:27

 INCAR:
 POTCAR:    PAW_PBE Ni 02Aug2007
 POTCAR:    PAW_PBE Fe 06Sep2000
 POTCAR:    PAW_PBE Ni 02Aug2007
   VRHFIN =Ni:

   TITEL  = PAW_PBE Ni 02Aug2007
   POMASS =   58.690; ZVAL   =   10.000    mass and valenz
   ENMAX  =  269.532; ENMIN  =  202.149 eV

 POTCAR:    PAW_PBE Fe 06Sep2000
   VRHFIN =Fe:  d7 s1

   TITEL  = PAW_PBE Fe 06Sep2000
   POMASS =   55.847; ZVAL   =    8.000    mass and valenz
   ENMAX  =  267.882; ENMIN  =  200.911 eV

 Optimization of the real space projectors (new method)

 maximal supplied QI-value         = 16.25
 optimisation between [QCUT,QGAM] = [ 11.54, 23.24] = [ 37.28,151.24] Ry
 Optimized for a Real-space Cutoff    1.45 Angstroem

   l    n(q)    QCUT    max X(q) W(low)/X(q) W(high)/X(q)  e(spline)
   2      9    11.539    60.317    0.19E-03    0.47E-04    0.16E-06
   2      9    11.539    55.921    0.19E-03    0.48E-04    0.16E-06
   0     10    11.539    51.690    0.80E-04    0.50E-04    0.24E-06
   0     10    11.539    30.015    0.73E-04    0.45E-04    0.22E-06
   1     10    11.539    18.849    0.87E-04    0.16E-03    0.71E-07
   1     10    11.539    14.624    0.73E-04    0.13E-03    0.64E-07
 Optimization of the real space projectors (new method)

 maximal supplied QI-value         = 16.25
 optimisation between [QCUT,QGAM] = [ 11.54, 23.24] = [ 37.28,151.24] Ry
 Optimized for a Real-space Cutoff    1.53 Angstroem

   l    n(q)    QCUT    max X(q) W(low)/X(q) W(high)/X(q)  e(spline)
   2     10    11.539    80.901    0.11E-03    0.14E-03    0.21E-06
   2     10    11.539    75.754    0.11E-03    0.14E-03    0.22E-06
   0     11    11.539    58.752    0.52E-04    0.18E-04    0.33E-06
   0     11    11.539    30.679    0.44E-04    0.16E-04    0.30E-06
   1     10    11.539    17.977    0.53E-04    0.29E-04    0.13E-06
   1     10    11.539    13.559    0.44E-04    0.25E-04    0.11E-06
  PAW_PBE Ni 02Aug2007                  :
  PAW_PBE Fe 06Sep2000                  :

 POSCAR: POSCAR
  positions in direct lattice
  velocities in cartesian coordinates
 exchange correlation table for  LEXCH =        8
   RHO(1)=    0.500       N(1)  =     2000
   RHO(2)=  100.500       N(2)  =     4000

 ion  position               nearest neighbor table
   1  0.001  0.750  0.500-  14 2.48   5 2.51   5 2.51   9 2.52   9 2.52   4 2.53   4 2.53  10 2.56
                            10 2.56   6 2.57
   2  0.249  0.502  0.500-  10 2.50  10 2.50  12 2.52  12 2.52  13 2.52  13 2.52  11 2.53   9 2.54
                             9 2.54   3 2.54
   3  0.503  0.751  0.500-  16 2.46  13 2.47  13 2.47  10 2.50  10 2.50   7 2.53   7 2.53   5 2.53
                             5 2.53   2 2.54
   4  0.997  0.999  0.000-   5 2.49  14 2.50  14 2.50  11 2.50  11 2.50   1 2.53   1 2.53  16 2.54
                            16 2.54  12 2.58
   5  0.753  0.749  1.000-   4 2.49  13 2.50   1 2.51   1 2.51   6 2.52   6 2.52   3 2.53   3 2.53
                            16 2.54  16 2.54
   6  0.745  0.497  0.500-  15 2.48  13 2.51  13 2.51   5 2.52   5 2.52   8 2.52   8 2.52   9 2.53
                             9 2.53   1 2.57
   7  0.497  1.000  1.000-  10 2.47  15 2.48  15 2.48  16 2.51  16 2.51   3 2.53   3 2.53  14 2.55
                            14 2.55   8 2.57
   8  0.754  0.251  0.000-   9 2.48  15 2.50  15 2.50  11 2.51  11 2.51   6 2.52   6 2.52  16 2.53
                            16 2.53   7 2.57
   9  0.997  0.500  1.000-   8 2.48   1 2.52   1 2.52   6 2.53   6 2.53   2 2.54   2 2.54  11 2.55
                            11 2.55  10 2.58
  10  0.256  0.750  1.000-   7 2.47   3 2.50   3 2.50   2 2.50   2 2.50  14 2.55  14 2.55   1 2.56
                             1 2.56   9 2.58
  11  0.002  0.248  0.500-   4 2.50   4 2.50  12 2.51  12 2.51   8 2.51   8 2.51   2 2.53   9 2.55
                             9 2.55  16 2.57
  12  0.252  0.254  0.000-  11 2.51  11 2.51   2 2.52   2 2.52  13 2.54  14 2.54  14 2.54  15 2.57
                            15 2.57   4 2.58
  13  0.501  0.508  0.000-   3 2.47   3 2.47   5 2.50   6 2.51   6 2.51   2 2.52   2 2.52  12 2.54
                            15 2.62  15 2.62
  14  0.243  0.999  0.500-   1 2.48   4 2.50   4 2.50  12 2.54  12 2.54  10 2.55  10 2.55   7 2.55
                             7 2.55  15 2.58
  15  0.506  0.246  0.500-   6 2.48   7 2.48   7 2.48   8 2.50   8 2.50  12 2.57  12 2.57  14 2.58
                            13 2.62  13 2.62
  16  0.744  0.997  0.500-   3 2.46   7 2.51   7 2.51   8 2.53   8 2.53   5 2.54   5 2.54   4 2.54
                             4 2.54  11 2.57

IMPORTANT INFORMATION: All symmetrisations will be switched off!
NOSYMM: (Re-)initialisation of all symmetry stuff for point group C_1.

Automatic generation of k-mesh.
 generate k-points for:    3    3    9
Space group operators:
 irot       det(A)        alpha          n_x          n_y          n_z        tau_x        tau_y        tau_z
    1     1.000000     0.000000     1.000000     0.000000     0.000000     0.000000     0.000000     0.000000

 Subroutine IBZKPT returns following result:

 Found     41 irreducible k-points:

 Following reciprocal coordinates:
            Coordinates               Weight
  0.000000  0.000000  0.000000      1.000000
  0.333333  0.000000  0.000000      2.000000
  0.000000  0.333333  0.000000      2.000000
  0.333333  0.333333  0.000000      2.000000
 -0.333333  0.333333  0.000000      2.000000
  0.000000  0.000000  0.111111      2.000000
  0.333333  0.000000  0.111111      2.000000
 -0.333333  0.000000  0.111111      2.000000
  0.000000  0.333333  0.111111      2.000000
  0.333333  0.333333  0.111111      2.000000
 -0.333333  0.333333  0.111111      2.000000
  0.000000 -0.333333  0.111111      2.000000
  0.333333 -0.333333  0.111111      2.000000
 -0.333333 -0.333333  0.111111      2.000000
  0.000000  0.000000  0.222222      2.000000
  0.333333  0.000000  0.222222      2.000000
 -0.333333  0.000000  0.222222      2.000000
  0.000000  0.333333  0.222222      2.000000
  0.333333  0.333333  0.222222      2.000000
 -0.333333  0.333333  0.222222      2.000000
  0.000000 -0.333333  0.222222      2.000000
  0.333333 -0.333333  0.222222      2.000000
 -0.333333 -0.333333  0.222222      2.000000
  0.000000  0.000000  0.333333      2.000000
  0.333333  0.000000  0.333333      2.000000
 -0.333333  0.000000  0.333333      2.000000
  0.000000  0.333333  0.333333      2.000000
  0.333333  0.333333  0.333333      2.000000
 -0.333333  0.333333  0.333333      2.000000
  0.000000 -0.333333  0.333333      2.000000
  0.333333 -0.333333  0.333333      2.000000
 -0.333333 -0.333333  0.333333      2.000000
  0.000000  0.000000  0.444444      2.000000
  0.333333  0.000000  0.444444      2.000000
 -0.333333  0.000000  0.444444      2.000000
  0.000000  0.333333  0.444444      2.000000
  0.333333  0.333333  0.444444      2.000000
 -0.333333  0.333333  0.444444      2.000000
  0.000000 -0.333333  0.444444      2.000000
  0.333333 -0.333333  0.444444      2.000000
 -0.333333 -0.333333  0.444444      2.000000

 Following cartesian coordinates:
            Coordinates               Weight
  0.000000 -0.000000  0.000000      1.000000
  0.083333  0.083333  0.083333      2.000000
 -0.083333  0.083333  0.083333      2.000000
  0.000000  0.166667  0.166667      2.000000
 -0.166667  0.000000  0.000000      2.000000
  0.000000 -0.111111  0.111111      2.000000
  0.083333 -0.027778  0.194444      2.000000
 -0.083333 -0.194444  0.027778      2.000000
 -0.083333 -0.027778  0.194444      2.000000
  0.000000  0.055556  0.277778      2.000000
 -0.166667 -0.111111  0.111111      2.000000
  0.083333 -0.194444  0.027778      2.000000
  0.166667 -0.111111  0.111111      2.000000
  0.000000 -0.277778 -0.055556      2.000000
  0.000000 -0.222222  0.222222      2.000000
  0.083333 -0.138889  0.305556      2.000000
 -0.083333 -0.305556  0.138889      2.000000
 -0.083333 -0.138889  0.305556      2.000000
  0.000000 -0.055556  0.388889      2.000000
 -0.166667 -0.222222  0.222222      2.000000
  0.083333 -0.305556  0.138889      2.000000
  0.166667 -0.222222  0.222222      2.000000
  0.000000 -0.388889  0.055556      2.000000
  0.000000 -0.333333  0.333333      2.000000
  0.083333 -0.250000  0.416667      2.000000
 -0.083333 -0.416667  0.250000      2.000000
 -0.083333 -0.250000  0.416667      2.000000
  0.000000 -0.166667  0.500000      2.000000
 -0.166667 -0.333333  0.333333      2.000000
  0.083333 -0.416667  0.250000      2.000000
  0.166667 -0.333333  0.333333      2.000000
  0.000000 -0.500000  0.166667      2.000000
  0.000000 -0.444444  0.444444      2.000000
  0.083333 -0.361111  0.527778      2.000000
 -0.083333 -0.527778  0.361111      2.000000
 -0.083333 -0.361111  0.527778      2.000000
  0.000000 -0.277778  0.611111      2.000000
 -0.166667 -0.444444  0.444444      2.000000
  0.083333 -0.527778  0.361111      2.000000
  0.166667 -0.444444  0.444444      2.000000
  0.000000 -0.611111  0.277778      2.000000

 TETIRR: Found    240 inequivalent tetrahedra from      486

 SYSTEM =  SQS-NiFe
 POSCAR =  POSCAR

 Startparameter for this run:
   NWRITE =      2    write-flag & timer
   PREC   = accura    normal or accurate (medium, high low for compatibility)
   ISTART =      0    job   : 0-new  1-cont  2-samecut
   ICHARG =      2    charge: 1-file 2-atom 10-const
   ISPIN  =      2    spin polarized calculation?
   LNONCOLLINEAR =      F non collinear calculations
   LSORBIT =      F    spin-orbit coupling
   INIWAV =      1    electr: 0-lowe 1-rand  2-diag
   LASPH  =      F    aspherical Exc in radial PAW
   METAGGA=      F    non-selfconsistent MetaGGA calc.

 Electronic Relaxation 1
   ENCUT  =  520.0 eV  38.22 Ry    6.18 a.u.  16.26 16.26  4.69*2*pi/ulx,y,z
   ENINI  =  520.0     initial cutoff
   ENAUG  =  544.6 eV  augmentation charge cutoff
   NELM   =    200;   NELMIN=  2; NELMDL= -5     # of ELM steps
   EDIFF  = 0.1E-05   stopping-criterion for ELM
   LREAL  =      T    real-space projection
   NLSPLINE    = F    spline interpolate recip. space projectors
   LCOMPAT=      F    compatible to vasp.4.4
   GGA_COMPAT  = T    GGA compatible to vasp.4.4-vasp.4.6
   LMAXPAW     = -100 max onsite density
   LMAXMIX     =    2 max onsite mixed and CHGCAR
   VOSKOWN=      0    Vosko Wilk Nusair interpolation
   ROPT   =   -0.00025  -0.00025
 Ionic relaxation
   EDIFFG = -.2E-01   stopping-criterion for IOM
   NSW    =      0    number of steps for IOM
   NBLOCK =      1;   KBLOCK =      1    inner block; outer block
   IBRION =     -1    ionic relax: 0-MD 1-quasi-New 2-CG
   NFREE  =      0    steps in history (QN), initial steepest desc. (CG)
   ISIF   =      2    stress and relaxation
   IWAVPR =     10    prediction:  0-non 1-charg 2-wave 3-comb
   ISYM   =      0    0-nonsym 1-usesym 2-fastsym
   LCORR  =      T    Harris-Foulkes like correction to forces

   POTIM  = 0.5000    time-step for ionic-motion
   TEIN   =    0.0    initial temperature
   TEBEG  =    0.0;   TEEND  =   0.0 temperature during run
   SMASS  =  -3.00    Nose mass-parameter (am)
[...]
 augmentation part      144.0000000 magnetization      32.0000000

 Free energy of the ion-electron system (eV)
  alpha Z        PSCENC =       868.92678499
  Ewald energy   TEWEN  =    -11987.95434162
  -Hartree energ DENC   =     -3052.23371130
  -exchange      EXHF   =         0.00000000
  -V(xc)+E(xc)   XCENC  =       293.53079191
  PAW double counting   =     12132.73952366   -12729.24799506
  entropy T*S    EENTRO =         0.00000000
  eigenvalues    EBANDS =      2343.51679709
  atomic energy  EATOM  =     13375.86880085
  Solvation  Ediel_sol  =         0.00000000
  free energy    TOTEN  =      1245.14665051 eV

  energy without entropy =     1245.14665051  energy(sigma->0) =     1245.14665051

[...]

 BZINTS: Fermi energy: 11.323834;144.000000 electrons
         Band energy:1122.262938;  BLOECHL correction: -0.058022

 eigenvalue-minimisations  : 16728
 total energy-change (2. order) :-0.1221254E+04  (-0.1158671E+04)
 number of electron     144.0000000 magnetization      32.0000000
 augmentation part      144.0000000 magnetization      32.0000000

[...]

 BZINTS: Fermi energy:  9.617255;144.000000 electrons
         Band energy: 977.942165;  BLOECHL correction: -0.130557

[...]

 Broyden mixing:
  rms(total) = 0.42024E+01    rms(broyden)= 0.42023E+01
  rms(prec ) = 0.52676E+01
  weight for this iteration     100.00

[...]

 eigenvalues of (default mixing * dielectric matrix)
  average eigenvalue GAMMA=   0.4130
  0.4130

[...]

 eigenvalue-minimisations  :  9220
 total energy-change (2. order) : 0.1626697E-05  (-0.5522435E-07)
 number of electron     144.0000007 magnetization      25.5412618
 augmentation part       82.5414850 magnetization      21.5873320

 Broyden mixing:
  rms(total) = 0.82127E-03    rms(broyden)= 0.82125E-03
  rms(prec ) = 0.12945E-02
  weight for this iteration     100.00

 eigenvalues of (default mixing * dielectric matrix)
  average eigenvalue GAMMA=   0.6814
  2.2409  2.2409  2.0994  1.4533  1.2193  1.0049  1.0049  1.0519  0.7116  0.7116
  0.6416  0.6134  0.3121  0.1055  0.1055  0.1771  0.1713  0.1308  0.1358  0.1409
  0.1409  0.1634  0.1615  0.1491  0.1473

[...]

--------------------------------------- Iteration      1(  31)  ---------------------------------------

[...]

 eigenvalue-minimisations  :  9106
 total energy-change (2. order) :-0.8870065E-06  (-0.3731070E-07)
 number of electron     144.0000007 magnetization      25.5412618
 augmentation part       82.5414850 magnetization      21.5873320

 Free energy of the ion-electron system (eV)
  alpha Z        PSCENC =       868.92678499
  Ewald energy   TEWEN  =    -11987.95434162
  -Hartree energ DENC   =     -2756.55184197
  -exchange      EXHF   =         0.00000000
  -V(xc)+E(xc)   XCENC  =       282.24944218
  PAW double counting   =     14811.22942563   -15433.12040478
  entropy T*S    EENTRO =         0.00000000
  eigenvalues    EBANDS =       729.45667575
  atomic energy  EATOM  =     13375.86880085
  Solvation  Ediel_sol  =         0.00000000
  free energy    TOTEN  =      -109.89545897 eV

  energy without entropy =     -109.89545897  energy(sigma->0) =     -109.89545897

 average (electrostatic) potential at core
  the test charge radii are     0.9791  1.0103
  (the norm of the test charge is              1.0000)
       1 -83.9143       2 -83.9848       3 -83.8801       4 -83.9154       5 -83.8456
       6 -83.8941       7 -83.9323       8 -83.9727       9 -41.9296      10 -41.9460
      11 -41.8078      12 -41.7910      13 -41.9874      14 -41.8646      15 -41.9190
      16 -42.0390

 E-fermi :   7.4618     XC(G=0): -13.0395     alpha+bet :-14.6744

 spin component 1

 k-point     1 :       0.0000    0.0000    0.0000
  band No.  band energies     occupation
      1      -1.3062      1.00000
      2       0.8066      1.00000
      3       0.8342      1.00000
      4       0.8464      1.00000
      5       0.8985      1.00000
      6       1.4517      1.00000
      7       1.4832      1.00000
      8       2.4812      1.00000
      9       2.5046      1.00000
     10       2.5208      1.00000
     11       3.0640      1.00000
     12       3.1359      1.00000
     13       3.1768      1.00000
     14       3.1903      1.00000
     15       3.2038      1.00000
     16       3.2564      1.00000
     17       3.3146      1.00000
     18       3.6932      1.00000
     19       3.7960      1.00000
     20       3.8435      1.00000
     21       3.8998      1.00000
     22       3.9830      1.00000
     23       4.0599      1.00000
     24       4.2323      1.00000
     25       4.2720      1.00000
     26       4.4228      1.00000
     27       4.5220      1.00000
     28       4.5738      1.00000
     29       4.5926      1.00000
     30       4.6525      1.00000
     31       4.6819      1.00000
     32       4.8411      1.00000
     33       4.8453      1.00000
     34       4.8602      1.00000
     35       4.8603      1.00000
     36       4.9159      1.00000
     37       4.9569      1.00000
     38       4.9668      1.00000
     39       4.9978      1.00000
     40       5.0379      1.00000
     41       5.0640      1.00000
     42       5.0840      1.00000
     43       5.0859      1.00000
     44       5.1230      1.00000
     45       5.1314      1.00000
     46       5.1519      1.00000
     47       5.1661      1.00000
     48       5.1888      1.00000
     49       5.1960      1.00000
     50       5.2458      1.00000
     51       5.4009      1.00000
     52       5.4358      1.00000
     53       5.5058      1.00000
     54       5.5251      1.00000
     55       5.7310      1.00000
     56       5.7371      1.00000
     57       5.7774      1.00000
     58       5.8106      1.00000
     59       5.8251      1.00000
     60       5.8471      1.00000
[...]
     88       7.1955      0.78493
     89       7.2795      0.54224
     90       8.4214      0.00000
     91       8.4963      0.00000
     92       9.5548      0.00000
     93       9.7285      0.00000
     94       9.7450      0.00000
     95       9.8852      0.00000
     96       9.9403      0.00000
     97      13.2556      0.00000
     98      13.2677      0.00000
     99      15.6117      0.00000
    100      15.8383      0.00000
    101      15.9039      0.00000
    102      16.1522      0.00000

[...]

 spin component 2

[...]

 k-point    41 :      -0.3333   -0.3333    0.4444
  band No.  band energies     occupation
      1       3.1735      1.00000
      2       3.2136      1.00000
      3       3.3431      1.00000
      4       3.5445      1.00000
      5       3.7894      1.00000
      6       3.7952      1.00000
      7       3.8402      1.00000
      8       3.9500      1.00000
      9       3.9671      1.00000
     10       3.9973      1.00000
     11       4.0504      1.00000
     12       4.0940      1.00000
     13       4.1291      1.00000
     14       4.3865      1.00000
     15       4.4147      1.00000
     16       4.4210      1.00000
     17       4.5087      1.00000
     18       4.5308      1.00000
     19       4.6279      1.00000
     20       4.6580      1.00000
     21       4.8072      1.00000
     22       4.8683      1.00000
     23       4.9890      1.00000
     24       5.0214      1.00000
     25       5.1159      1.00000
     26       5.1482      1.00000
     27       5.3951      1.00000
     28       5.4244      1.00000
     29       5.5328      1.00000
     30       5.5574      1.00000
     31       5.6057      1.00000
     32       5.6529      1.00000
     33       5.7297      1.00000
     34       5.8213      1.00000
     35       5.9240      1.00000
     36       5.9864      1.00000
     37       6.0095      1.00000
     38       6.0991      1.00000
     39       6.1676      1.00000
     40       6.2379      1.00000
     41       6.2761      1.00000
     42       6.3118      1.00000
     43       6.4967      1.00000
     44       6.5259      1.00000
     45       6.6062      1.00000
     46       6.6840      1.00000
     47       6.7302      1.00000
     48       6.7743      1.00000
     49       6.8540      1.00000
     50       6.9092      1.00000
     51       6.9941      1.00000
     52       7.0107      1.00000
     53       7.1881      1.00000
     54       7.3091      1.00000
     55       7.4308      0.78414
     56       7.5070      0.23234
     57       7.5859      0.03176
     58       7.6578     -0.07620
     59       7.7550     -0.00158
     60       7.7999      0.00000
[...]
     88      10.7661      0.00000
     89      11.2623      0.00000
     90      11.3922      0.00000
     91      11.4347      0.00000
     92      11.5065      0.00000
     93      12.6027      0.00000
     94      12.6772      0.00000
     95      12.8599      0.00000
     96      12.9173      0.00000
     97      14.5759      0.00000
     98      14.6388      0.00000
     99      15.0707      0.00000
    100      15.1067      0.00000
    101      15.4506      0.00000
    102      15.5115      0.00000

 soft charge-density along one line, spin component           1
         0         1         2         3         4         5         6         7         8         9
 total charge-density along one line

 soft charge-density along one line, spin component           2
         0         1         2         3         4         5         6         7         8         9
 total charge-density along one line

------------------------ aborting loop because EDIFF is reached ----------------------------------------

 total charge

# of ion       s       p       d       tot
    1        0.499   0.493   8.308   9.299
    2        0.515   0.526   8.313   9.353
    3        0.507   0.509   8.328   9.344
    4        0.508   0.507   8.319   9.335
    5        0.492   0.485   8.316   9.293
    6        0.501   0.494   8.320   9.315
    7        0.510   0.515   8.321   9.347
    8        0.510   0.515   8.314   9.340
    9        0.469   0.493   6.183   7.145
   10        0.472   0.501   6.187   7.160
   11        0.477   0.509   6.211   7.197
   12        0.478   0.510   6.211   7.200
   13        0.471   0.499   6.178   7.148
   14        0.475   0.501   6.203   7.179
   15        0.472   0.502   6.187   7.161
   16        0.466   0.491   6.167   7.124
tot          7.821   8.052 116.066 131.939

 magnetization (x)

[...]

  FORCE on cell =-STRESS in cart. coord.  units (eV):
  Direction    XX          YY          ZZ          XY          YZ          ZX
  Alpha Z   868.92678   868.92678   868.92678
  Ewald   -4038.62404 -3974.68010 -3974.68007   -20.64218   -65.06888   -20.64220
  Hartree   876.52019   940.02528   940.02480   -19.80225   -67.83639   -19.74984
  E(xc)    -758.80988  -759.29968  -759.29916     0.08053     0.22603     0.07965
  Local     398.71673   267.79634   267.79715    41.09570   134.19113    40.96705
  n-local  -264.66705  -268.00644  -267.99759     0.29279     1.73757     0.35247
  augment  1717.05873  1721.02753  1721.02476    -0.49208    -1.31943    -0.47418
  Kinetic  1200.32039  1203.17595  1203.17444    -0.24532    -0.83911    -0.19183
  Fock        0.00000     0.00000     0.00000     0.00000     0.00000     0.00000
  Total      -0.55815    -1.03433    -1.02889     0.28719     1.09093     0.34111
  in kB      -4.90946    -9.09784    -9.05001     2.52608     9.59571     3.00040

 VOLUME and BASIS-vectors are now :
  energy-cutoff  :      520.00
  volume of cell :      182.15
      direct lattice vectors                 reciprocal lattice vectors
     7.142000000  3.571000000  3.571000000     0.070008401  0.070008401  0.070008401
    -7.142000000  3.571000000  3.571000000    -0.070008401  0.070008401  0.070008401
     0.000000000 -1.785500000  1.785500000     0.000000000 -0.280033604  0.280033604

  length of vectors
     8.747127871  8.747127871  2.525078316     0.121258108  0.121258108  0.396027321

 FORCES acting on ions
    electron-ion (+dipol)            ewald-force                    non-local-force                 convergence-correction
   -.111E+03 -.501E+02 -.501E+02   0.111E+03 0.502E+02 0.502E+02   -.321E+00 -.778E-01 -.773E-01   0.125E-01 0.310E-02 0.310E-02
   -.348E+02 0.604E+02 0.604E+02   0.348E+02 -.606E+02 -.606E+02   -.846E-02 0.199E+00 0.199E+00   -.530E-02 -.491E-02 -.490E-02
   0.327E+02 0.414E+02 0.414E+02   -.328E+02 -.415E+02 -.415E+02   0.574E-01 0.845E-01 0.844E-01   -.570E-02 -.518E-02 -.518E-02
   0.342E+02 -.103E+03 -.103E+03   -.344E+02 0.103E+03 0.103E+03   0.251E+00 -.217E+00 -.217E+00   -.105E-01 0.612E-02 0.612E-02
   0.256E+02 0.186E+01 0.186E+01   -.258E+02 -.177E+01 -.176E+01   0.180E+00 -.110E+00 -.110E+00   -.470E-02 0.256E-02 0.256E-02
   -.327E+02 0.507E+02 0.507E+02   0.326E+02 -.507E+02 -.507E+02   0.888E-01 -.554E-01 -.556E-01   0.165E-01 -.342E-02 -.342E-02
   0.112E+03 0.253E+01 0.253E+01   -.113E+03 -.257E+01 -.257E+01   0.105E+00 0.374E-01 0.368E-01   0.525E-02 0.311E-02 0.311E-02
   -.366E+02 -.460E+01 -.460E+01   0.369E+02 0.459E+01 0.459E+01   -.316E+00 -.273E-02 -.310E-02   0.114E-01 0.558E-02 0.558E-02
   -.814E+02 -.953E+01 -.953E+01   0.818E+02 0.931E+01 0.931E+01   -.403E+00 0.219E+00 0.219E+00   0.872E-02 -.189E-02 -.189E-02
   0.442E+02 0.156E+02 0.156E+02   -.445E+02 -.154E+02 -.154E+02   0.247E+00 -.186E+00 -.187E+00   0.344E-02 -.497E-02 -.496E-02
   -.258E+02 -.382E+02 -.382E+02   0.258E+02 0.387E+02 0.387E+02   0.768E-02 -.495E+00 -.495E+00   -.562E-02 -.537E-03 -.536E-03
   -.414E+02 -.678E+01 -.678E+01   0.416E+02 0.658E+01 0.658E+01   -.269E+00 0.203E+00 0.203E+00   -.885E-02 -.151E-02 -.151E-02
   -.448E+02 0.965E+02 0.965E+02   0.450E+02 -.967E+02 -.967E+02   -.251E+00 0.243E+00 0.243E+00   -.439E-02 -.522E-02 -.522E-02
   0.269E+02 -.530E+02 -.530E+02   -.268E+02 0.531E+02 0.531E+02   -.110E+00 -.133E+00 -.132E+00   -.315E-02 -.231E-02 -.231E-02
   0.107E+03 0.450E+02 0.450E+02   -.108E+03 -.452E+02 -.452E+02   0.733E+00 0.175E+00 0.175E+00   0.710E-03 0.248E-02 0.248E-02
   0.244E+02 -.488E+02 -.488E+02   -.244E+02 0.488E+02 0.488E+02   -.179E-01 0.730E-01 0.732E-01   -.599E-02 0.847E-02 0.847E-02
   0.206E-01 0.424E-01 0.423E-01   0.242E-12 0.355E-13 0.163E-12   -.269E-01 -.432E-01 -.431E-01   0.433E-02 0.149E-02 0.150E-02

 POSITION                                       TOTAL-FORCE (eV/Angst)
     -5.34927      1.78945      3.57495         0.008732     -0.011411     -0.011625
     -1.80378      1.78757      3.57307        -0.006985     -0.000129      0.000128
     -1.77562      3.58655      5.37205        -0.019254     -0.001762     -0.001543
     -0.01614      7.12623      7.12623        -0.002862     -0.003685     -0.003549
      0.03098      3.57908      7.15008        -0.001075     -0.010808     -0.010296
      1.77224      3.54477      5.33027         0.008971      0.002993      0.002773
     -3.59254      3.55728      7.12828        -0.003822     -0.002835     -0.003196
      3.59665      3.58774      3.58774         0.008172     -0.003634     -0.003970
      3.54710      3.55802      7.12902         0.001011     -0.003531     -0.003585
     -3.52974      1.80938      5.38038        -0.016125      0.005614      0.005695
     -1.75699     -0.00162      1.78388         0.000578      0.007198      0.006596
     -0.01147      1.80707      1.80707         0.005343     -0.004188     -0.003925
     -0.04977      3.60064      3.60064        -0.004192      0.016287      0.016444
     -5.39322      3.54193      5.32743        -0.004689      0.009799      0.009725
      1.85459      1.79417      3.57968         0.004437      0.004403      0.004590
     -1.80702      5.32573      7.11123         0.021757     -0.004311     -0.004262
    total drift:                               -0.001956      0.000748      0.000749

  FREE ENERGIE OF THE ION-ELECTRON SYSTEM (eV)
  free  energy   TOTEN  =      -109.89545897 eV

  energy  without entropy=     -109.89545897  energy(sigma->0) =     -109.89545897

 total charge

[...]

 magnetization (x)

# of ion       s       p       d       tot
    1       -0.021  -0.044   0.691   0.625
    2       -0.030  -0.063   0.726   0.633
    3       -0.021  -0.046   0.639   0.572
    4       -0.026  -0.049   0.680   0.605
    5       -0.016  -0.038   0.639   0.585
    6       -0.021  -0.041   0.666   0.604
    7       -0.026  -0.054   0.687   0.607
    8       -0.025  -0.053   0.706   0.629
    9       -0.004  -0.026   2.653   2.623
   10       -0.002  -0.027   2.650   2.620
   11       -0.008  -0.037   2.545   2.499
   12       -0.013  -0.044   2.547   2.490
   13       -0.003  -0.026   2.683   2.654
   14       -0.008  -0.030   2.595   2.557
   15       -0.007  -0.035   2.642   2.600
   16        0.001  -0.019   2.721   2.703
tot         -0.229  -0.632  26.469  25.608

 BZINTS: Fermi energy:  7.461777;144.000000 electrons
         Band energy: 729.456676;  BLOECHL correction: -0.211327