 vasp.5.4.4.18Apr17-6-g9f103f2a35 (build Sep 06 2021 19:49:22) complex

 executed on             LinuxIFC date 2021.12.28  18:34:32

 INCAR:
 POTCAR:    PAW_PBE Ni 02Aug2007
 POTCAR:    PAW_PBE Fe 06Sep2000
 POTCAR:    PAW_PBE Ni 02Aug2007
   VRHFIN =Ni:

   TITEL  = PAW_PBE Ni 02Aug2007
   POMASS =   58.690; ZVAL   =   10.000    mass and valenz
   ENMAX  =  269.532; ENMIN  =  202.149 eV

 POTCAR:    PAW_PBE Fe 06Sep2000
   VRHFIN =Fe:  d7 s1

   TITEL  = PAW_PBE Fe 06Sep2000
   POMASS =   55.847; ZVAL   =    8.000    mass and valenz
   ENMAX  =  267.882; ENMIN  =  200.911 eV

 Optimization of the real space projectors (new method)

 maximal supplied QI-value         = 16.25
 optimisation between [QCUT,QGAM] = [ 11.54, 23.24] = [ 37.28,151.24] Ry
 Optimized for a Real-space Cutoff    1.45 Angstroem

   l    n(q)    QCUT    max X(q) W(low)/X(q) W(high)/X(q)  e(spline)
   2      9    11.539    60.317    0.19E-03    0.47E-04    0.16E-06
   2      9    11.539    55.921    0.19E-03    0.48E-04    0.16E-06
   0     10    11.539    51.690    0.80E-04    0.50E-04    0.24E-06
   0     10    11.539    30.015    0.73E-04    0.45E-04    0.22E-06
   1     10    11.539    18.849    0.87E-04    0.16E-03    0.71E-07
   1     10    11.539    14.624    0.73E-04    0.13E-03    0.64E-07
 Optimization of the real space projectors (new method)

 maximal supplied QI-value         = 16.25
 optimisation between [QCUT,QGAM] = [ 11.54, 23.24] = [ 37.28,151.24] Ry
 Optimized for a Real-space Cutoff    1.53 Angstroem

   l    n(q)    QCUT    max X(q) W(low)/X(q) W(high)/X(q)  e(spline)
   2     10    11.539    80.901    0.11E-03    0.14E-03    0.21E-06
   2     10    11.539    75.754    0.11E-03    0.14E-03    0.22E-06
   0     11    11.539    58.752    0.52E-04    0.18E-04    0.33E-06
   0     11    11.539    30.679    0.44E-04    0.16E-04    0.30E-06
   1     10    11.539    17.977    0.53E-04    0.29E-04    0.13E-06
   1     10    11.539    13.559    0.44E-04    0.25E-04    0.11E-06
  PAW_PBE Ni 02Aug2007                  :
  PAW_PBE Fe 06Sep2000                  :

 POSCAR: POSCAR
  positions in direct lattice
  velocities in cartesian coordinates
 exchange correlation table for  LEXCH =        8
   RHO(1)=    0.500       N(1)  =     2000
   RHO(2)=  100.500       N(2)  =     4000

 ion  position               nearest neighbor table
   1  0.002  0.748  0.500-  10 2.46  10 2.46   6 2.54   9 2.54   9 2.54  14 2.56   4 2.57   4 2.57
                             5 2.58   5 2.58
   2  0.252  0.498  0.500-   9 2.48   9 2.48  11 2.50   3 2.50  13 2.52  13 2.52  12 2.55  12 2.55
                            10 2.57  10 2.57
   3  0.495  0.748  0.500-   2 2.50   5 2.52   5 2.52  10 2.54  10 2.54   7 2.54   7 2.54  13 2.61
                            13 2.61  16 2.62
   4  0.003  0.005  1.000-  12 2.47  16 2.50  16 2.50  11 2.54  11 2.54  14 2.54  14 2.54   5 2.56
                             1 2.57   1 2.57
   5  0.747  0.754  0.000-  16 2.52  16 2.52   3 2.52   3 2.52   4 2.56   6 2.57   6 2.57   1 2.58
                             1 2.58  13 2.60
   6  0.749  0.499  0.500-  13 2.51  13 2.51   8 2.53   8 2.53   1 2.54  15 2.56   5 2.57   5 2.57
                             9 2.59   9 2.59
   7  0.501  0.002  1.000-   8 2.49  14 2.50  14 2.50   3 2.54   3 2.54  16 2.56  16 2.56  15 2.57
                            15 2.57  10 2.57
   8  0.750  0.248  0.000-  16 2.48  16 2.48   7 2.49  11 2.51  11 2.51   6 2.53   6 2.53   9 2.56
                            15 2.62  15 2.62
   9  0.007  0.497  0.000-  11 2.45  11 2.45  10 2.48   2 2.48   2 2.48   1 2.54   1 2.54   8 2.56
                             6 2.59   6 2.59
  10  0.244  0.751  0.000-   1 2.46   1 2.46   9 2.48  14 2.52  14 2.52   3 2.54   3 2.54   2 2.57
                             2 2.57   7 2.57
  11  0.000  0.255  0.500-   9 2.45   9 2.45  16 2.49   2 2.50   8 2.51   8 2.51   4 2.54   4 2.54
                            12 2.57  12 2.57
  12  0.252  0.244  1.000-  15 2.40  15 2.40  14 2.47  14 2.47   4 2.47  13 2.47   2 2.55   2 2.55
                            11 2.57  11 2.57
  13  0.498  0.488  1.000-  15 2.39  15 2.39  12 2.47   6 2.51   6 2.51   2 2.52   2 2.52   5 2.60
                             3 2.61   3 2.61
  14  0.255  0.003  0.500-  15 2.45  12 2.47  12 2.47   7 2.50   7 2.50  10 2.52  10 2.52   4 2.54
                             4 2.54   1 2.56
  15  0.489  0.254  0.500-  13 2.39  13 2.39  12 2.40  12 2.40  14 2.45   6 2.56   7 2.57   7 2.57
                             8 2.62   8 2.62
  16  0.757  0.006  0.500-   8 2.48   8 2.48  11 2.49   4 2.50   4 2.50   5 2.52   5 2.52   7 2.56
                             7 2.56   3 2.62

IMPORTANT INFORMATION: All symmetrisations will be switched off!
NOSYMM: (Re-)initialisation of all symmetry stuff for point group C_1.

Automatic generation of k-mesh.
 generate k-points for:    3    3    9
Space group operators:
 irot       det(A)        alpha          n_x          n_y          n_z        tau_x        tau_y        tau_z
    1     1.000000     0.000000     1.000000     0.000000     0.000000     0.000000     0.000000     0.000000

 Subroutine IBZKPT returns following result:

 Found     41 irreducible k-points:

 Following reciprocal coordinates:
            Coordinates               Weight
  0.000000  0.000000  0.000000      1.000000
  0.333333  0.000000  0.000000      2.000000
  0.000000  0.333333  0.000000      2.000000
  0.333333  0.333333  0.000000      2.000000
 -0.333333  0.333333  0.000000      2.000000
  0.000000  0.000000  0.111111      2.000000
  0.333333  0.000000  0.111111      2.000000
 -0.333333  0.000000  0.111111      2.000000
  0.000000  0.333333  0.111111      2.000000
  0.333333  0.333333  0.111111      2.000000
 -0.333333  0.333333  0.111111      2.000000
  0.000000 -0.333333  0.111111      2.000000
  0.333333 -0.333333  0.111111      2.000000
 -0.333333 -0.333333  0.111111      2.000000
  0.000000  0.000000  0.222222      2.000000
  0.333333  0.000000  0.222222      2.000000
 -0.333333  0.000000  0.222222      2.000000
  0.000000  0.333333  0.222222      2.000000
  0.333333  0.333333  0.222222      2.000000
 -0.333333  0.333333  0.222222      2.000000
  0.000000 -0.333333  0.222222      2.000000
  0.333333 -0.333333  0.222222      2.000000
 -0.333333 -0.333333  0.222222      2.000000
  0.000000  0.000000  0.333333      2.000000
  0.333333  0.000000  0.333333      2.000000
 -0.333333  0.000000  0.333333      2.000000
  0.000000  0.333333  0.333333      2.000000
  0.333333  0.333333  0.333333      2.000000
 -0.333333  0.333333  0.333333      2.000000
  0.000000 -0.333333  0.333333      2.000000
  0.333333 -0.333333  0.333333      2.000000
 -0.333333 -0.333333  0.333333      2.000000
  0.000000  0.000000  0.444444      2.000000
  0.333333  0.000000  0.444444      2.000000
 -0.333333  0.000000  0.444444      2.000000
  0.000000  0.333333  0.444444      2.000000
  0.333333  0.333333  0.444444      2.000000
 -0.333333  0.333333  0.444444      2.000000
  0.000000 -0.333333  0.444444      2.000000
  0.333333 -0.333333  0.444444      2.000000
 -0.333333 -0.333333  0.444444      2.000000

 Following cartesian coordinates:
            Coordinates               Weight
  0.000000 -0.000000  0.000000      1.000000
  0.083333  0.083333  0.083333      2.000000
 -0.083333  0.083333  0.083333      2.000000
  0.000000  0.166667  0.166667      2.000000
 -0.166667  0.000000  0.000000      2.000000
  0.000000 -0.111111  0.111111      2.000000
  0.083333 -0.027778  0.194444      2.000000
 -0.083333 -0.194444  0.027778      2.000000
 -0.083333 -0.027778  0.194444      2.000000
  0.000000  0.055556  0.277778      2.000000
 -0.166667 -0.111111  0.111111      2.000000
  0.083333 -0.194444  0.027778      2.000000
  0.166667 -0.111111  0.111111      2.000000
  0.000000 -0.277778 -0.055556      2.000000
  0.000000 -0.222222  0.222222      2.000000
  0.083333 -0.138889  0.305556      2.000000
 -0.083333 -0.305556  0.138889      2.000000
 -0.083333 -0.138889  0.305556      2.000000
  0.000000 -0.055556  0.388889      2.000000
 -0.166667 -0.222222  0.222222      2.000000
  0.083333 -0.305556  0.138889      2.000000
  0.166667 -0.222222  0.222222      2.000000
  0.000000 -0.388889  0.055556      2.000000
  0.000000 -0.333333  0.333333      2.000000
  0.083333 -0.250000  0.416667      2.000000
 -0.083333 -0.416667  0.250000      2.000000
 -0.083333 -0.250000  0.416667      2.000000
  0.000000 -0.166667  0.500000      2.000000
 -0.166667 -0.333333  0.333333      2.000000
  0.083333 -0.416667  0.250000      2.000000
  0.166667 -0.333333  0.333333      2.000000
  0.000000 -0.500000  0.166667      2.000000
  0.000000 -0.444444  0.444444      2.000000
  0.083333 -0.361111  0.527778      2.000000
 -0.083333 -0.527778  0.361111      2.000000
 -0.083333 -0.361111  0.527778      2.000000
  0.000000 -0.277778  0.611111      2.000000
 -0.166667 -0.444444  0.444444      2.000000
  0.083333 -0.527778  0.361111      2.000000
  0.166667 -0.444444  0.444444      2.000000
  0.000000 -0.611111  0.277778      2.000000

 SYSTEM =  SQS-NiFe
 POSCAR =  POSCAR

 Startparameter for this run:
   NWRITE =      2    write-flag & timer
   PREC   = accura    normal or accurate (medium, high low for compatibility)
   ISTART =      0    job   : 0-new  1-cont  2-samecut
   ICHARG =      2    charge: 1-file 2-atom 10-const
   ISPIN  =      2    spin polarized calculation?
   LNONCOLLINEAR =      F non collinear calculations
   LSORBIT =      F    spin-orbit coupling
   INIWAV =      1    electr: 0-lowe 1-rand  2-diag
   LASPH  =      F    aspherical Exc in radial PAW
   METAGGA=      F    non-selfconsistent MetaGGA calc.

 Electronic Relaxation 1
   ENCUT  =  520.0 eV  38.22 Ry    6.18 a.u.  16.26 16.26  4.69*2*pi/ulx,y,z
   ENINI  =  520.0     initial cutoff
   ENAUG  =  544.6 eV  augmentation charge cutoff
   NELM   =    200;   NELMIN=  2; NELMDL= -5     # of ELM steps
   EDIFF  = 0.1E-04   stopping-criterion for ELM
   LREAL  =      T    real-space projection
   NLSPLINE    = F    spline interpolate recip. space projectors
   LCOMPAT=      F    compatible to vasp.4.4
   GGA_COMPAT  = T    GGA compatible to vasp.4.4-vasp.4.6
   LMAXPAW     = -100 max onsite density
   LMAXMIX     =    2 max onsite mixed and CHGCAR
   VOSKOWN=      0    Vosko Wilk Nusair interpolation
   ROPT   =   -0.00025  -0.00025
 Ionic relaxation
   EDIFFG = -.2E-01   stopping-criterion for IOM
   NSW    =     99    number of steps for IOM
   NBLOCK =      1;   KBLOCK =     99    inner block; outer block
   IBRION =      2    ionic relax: 0-MD 1-quasi-New 2-CG
   NFREE  =      1    steps in history (QN), initial steepest desc. (CG)
   ISIF   =      2    stress and relaxation
   IWAVPR =     11    prediction:  0-non 1-charg 2-wave 3-comb
   ISYM   =      0    0-nonsym 1-usesym 2-fastsym
   LCORR  =      T    Harris-Foulkes like correction to forces

   POTIM  = 0.5000    time-step for ionic-motion
   TEIN   =    0.0    initial temperature
   TEBEG  =    0.0;   TEEND  =   0.0 temperature during run
   SMASS  =  -3.00    Nose mass-parameter (am)
   estimated Nose-frequenzy (Omega)   =  0.10E-29 period in steps =****** mass=  -0.175E-26a.u.
[...]
   0.794E+01 0.171E+02 0.171E+02   -.689E+01 -.169E+02 -.169E+02   0.132E+01 0.220E+00 0.220E+00   0.846E-02 -.729E-02 -.729E-02
   0.135E+02 -.131E+02 -.131E+02   -.135E+02 0.128E+02 0.128E+02   -.127E-01 -.164E+00 -.164E+00   -.204E-01 -.278E-02 -.278E-02
   0.114E+00 0.100E+00 0.100E+00   0.995E-13 0.142E-13 0.114E-12   -.106E+00 -.981E-01 -.981E-01   -.548E-02 -.231E-02 -.231E-02

 POSITION                                       TOTAL-FORCE (eV/Angst)
     -5.32524      1.78667      3.57217        -0.478303     -0.126588     -0.126586
     -1.75886      1.78423      3.56973         0.064607      0.139113      0.139112
     -1.80788      3.54906      5.33456         0.182096      0.054987      0.054987
     -0.01308     -1.75878      1.81222         0.238685     -0.183206     -0.183207
     -0.05172      5.35887      5.35887         0.317289     -0.044494     -0.044494
      1.78902      3.56470      5.35020         0.068490      0.103534      0.103536
      3.56113      0.01275      3.58375         0.103002     -0.036248     -0.036250
      3.58277      3.56207      3.56207        -0.453462      0.123607      0.123605
     -3.50003      1.79875      1.79875        -0.878003     -0.295201     -0.295211
     -3.61669      3.55280      3.55280         0.724510      0.395961      0.395958
     -1.81924      0.02039      1.80589         0.515301     -0.124690     -0.124684
      0.05481     -0.01377      3.55723        -1.511034     -0.262169     -0.262169
      0.06896      1.73510      5.30610        -1.257307      0.984357      0.984358
      1.79893      0.02595      1.81145        -0.001161     -0.633209     -0.633200
      1.67745      1.75878      3.54428         2.388701      0.413802      0.413806
      5.35969      1.83044      3.61594        -0.023411     -0.509557     -0.509561
    total drift:                                0.002343     -0.000233     -0.000237

  FREE ENERGIE OF THE ION-ELECTRON SYSTEM (eV)
  free  energy   TOTEN  =      -109.25610490 eV

  energy  without entropy=     -109.27060078  energy(sigma->0) =     -109.26093686

[...]

 d Force = 0.4993116E+00[ 0.215E+00, 0.783E+00]  d Energy = 0.4969235E+00 0.239E-02
 d Force =-0.2194649E+02[-0.363E+02,-0.761E+01]  d Ewald  =-0.2197262E+02 0.261E-01

 Steepest descent step on ions:
 trial-energy change:   -0.496923  1 .order   -0.499312   -0.783317   -0.215306
  (g-gl).g = 0.783E+00      g.g   = 0.783E+00  gl.gl    = 0.000E+00
 g(Force)  = 0.783E+00   g(Stress)= 0.000E+00 ortho     = 0.000E+00
 gamma     =   0.00000
 trial     =   1.00000
 opt step  =   1.39286  (harmonic =   1.37905) maximal distance =0.16050902
 next E    =  -109.795176   (d E  =  -0.53907)

[...]

 Conjugate gradient step on ions:
 trial-energy change:   -0.059091  1 .order   -0.059232   -0.080787   -0.037677
  (g-gl).g = 0.649E-01      g.g   = 0.741E-01  gl.gl    = 0.783E+00
 g(Force)  = 0.741E-01   g(Stress)= 0.000E+00 ortho     = 0.925E-02
 gamma     =   0.08284
 trial     =   1.07857
 opt step  =   2.05781  (harmonic =   2.02121) maximal distance =0.03725229
 next E    =  -109.872540   (d E  =  -0.07609)

[...]

 d Force = 0.1656307E-01[-0.108E-02, 0.342E-01]  d Energy = 0.1638826E-01 0.175E-03
 d Force =-0.1131964E+02[-0.124E+02,-0.102E+02]  d Ewald  =-0.1131996E+02 0.318E-03

[...]

 d Force = 0.1398878E-01[ 0.974E-02, 0.182E-01]  d Energy = 0.1392898E-01 0.598E-04
 d Force = 0.1168724E+01[ 0.996E+00, 0.134E+01]  d Ewald  = 0.1168637E+01 0.878E-04

 Conjugate gradient step on ions:
 trial-energy change:   -0.013929  1 .order   -0.013989   -0.018239   -0.009738
  (g-gl).g = 0.158E-01      g.g   = 0.145E-01  gl.gl    = 0.741E-01
 g(Force)  = 0.145E-01   g(Stress)= 0.000E+00 ortho     =-0.110E-02
 gamma     =   0.21265
 trial     =   1.27442
 opt step  =   2.88889  (harmonic =   2.73441) maximal distance =0.03787025
 next E    =  -109.891906   (d E  =  -0.01998)

[...]

 d Force = 0.5391852E-02[-0.155E-02, 0.123E-01]  d Energy = 0.5266834E-02 0.125E-03
 d Force = 0.9863062E+00[ 0.711E+00, 0.126E+01]  d Ewald  = 0.9861043E+00 0.202E-03

[...]

 d Force = 0.9262179E-04[ 0.116E-04, 0.174E-03]  d Energy = 0.1022857E-03-0.966E-05
 d Force =-0.8289593E-01[-0.863E-01,-0.795E-01]  d Ewald  =-0.8289563E-01-0.293E-06

[...]

 Conjugate gradient step on ions:
 trial-energy change:   -0.004346  1 .order   -0.004358   -0.006464   -0.002252
  (g-gl).g = 0.379E-02      g.g   = 0.416E-02  gl.gl    = 0.145E-01
 g(Force)  = 0.416E-02   g(Stress)= 0.000E+00 ortho     =-0.640E-04
 gamma     =   0.26081
 trial     =   1.56121
 opt step  =   2.39626  (harmonic =   2.39626) maximal distance =0.01246674
 next E    =  -109.896188   (d E  =  -0.00496)

[...]

 real space projection operators:
  max/ min on nodes  :       2147.20       1819.69

[...]

 eigenvalue-minimisations  : 16728
 total energy-change (2. order) :-0.9713114E-03  (-0.1676007E-03)
 number of electron     144.0000007 magnetization      25.7248078
 augmentation part       82.5283665 magnetization      21.7162827

[...]

 Broyden mixing:
  rms(total) = 0.55097E-02    rms(broyden)= 0.55093E-02
  rms(prec ) = 0.83174E-02
  weight for this iteration     100.00

 eigenvalues of (default mixing * dielectric matrix)
  average eigenvalue GAMMA=   0.4964
  1.0331  0.6667  0.1589  0.1268

[...]

--------------------------------------- Iteration     11(   6)  ---------------------------------------

 eigenvalue-minimisations  : 12522
 total energy-change (2. order) : 0.9357134E-05  (-0.3485214E-05)
 number of electron     144.0000007 magnetization      25.7241193
 augmentation part       82.5329429 magnetization      21.7134224

 Free energy of the ion-electron system (eV)
  alpha Z        PSCENC =       868.92678499
  Ewald energy   TEWEN  =    -11987.95434162
  -Hartree energ DENC   =     -2755.99325764
  -exchange      EXHF   =         0.00000000
  -V(xc)+E(xc)   XCENC  =       282.33583650
  PAW double counting   =     14812.67610388   -15434.71606056
  entropy T*S    EENTRO =         0.01171595
  eigenvalues    EBANDS =       728.94767519
  atomic energy  EATOM  =     13375.86880085
  Solvation  Ediel_sol  =         0.00000000
  free energy    TOTEN  =      -109.89674246 eV

  energy without entropy =     -109.90845841  energy(sigma->0) =     -109.90064778

 average (electrostatic) potential at core
  the test charge radii are     0.9791  1.0103
  (the norm of the test charge is              1.0000)
       1 -83.9181       2 -83.9882       3 -83.8876       4 -83.9221       5 -83.8598
       6 -83.9009       7 -83.9333       8 -83.9760       9 -41.9316      10 -41.9492
      11 -41.8151      12 -41.7898      13 -41.9834      14 -41.8603      15 -41.9161
      16 -42.0427

 E-fermi :   7.4584     XC(G=0): -13.0398     alpha+bet :-14.6744

[...]

 spin component 2

[...]

 k-point    41 :      -0.3333   -0.3333    0.4444
  band No.  band energies     occupation
      1       3.1733      1.00000
      2       3.2153      1.00000
      3       3.3452      1.00000
      4       3.5460      1.00000
      5       3.7891      1.00000
      6       3.7957      1.00000
      7       3.8410      1.00000
      8       3.9515      1.00000
      9       3.9689      1.00000
     10       3.9996      1.00000
     11       4.0524      1.00000
     12       4.0954      1.00000
     13       4.1316      1.00000
     14       4.3868      1.00000
     15       4.4142      1.00000
     16       4.4208      1.00000
     17       4.5096      1.00000
     18       4.5320      1.00000
     19       4.6288      1.00000
     20       4.6611      1.00000
     21       4.8090      1.00000
     22       4.8705      1.00000
     23       4.9897      1.00000
     24       5.0232      1.00000
     25       5.1176      1.00000
     26       5.1504      1.00000
     27       5.4004      1.00000
     28       5.4289      1.00000
     29       5.5377      1.00000
     30       5.5608      1.00000
     31       5.6078      1.00000
     32       5.6555      1.00000
     33       5.7318      1.00000
     34       5.8239      1.00000
     35       5.9263      1.00000
     36       5.9892      1.00000
     37       6.0127      1.00000
     38       6.1023      1.00000
     39       6.1716      1.00000
     40       6.2408      1.00000
     41       6.2803      1.00000
     42       6.3162      1.00000
     43       6.5012      1.00000
     44       6.5302      1.00000
     45       6.6106      1.00000
     46       6.6874      1.00000
     47       6.7344      1.00000
     48       6.7762      1.00001
     49       6.8567      1.00009
     50       6.9112      1.00038
     51       6.9971      1.00263
     52       7.0128      1.00358
     53       7.1929      1.03405
     54       7.3124      0.96995
     55       7.4322      0.60976
     56       7.5123      0.28068
     57       7.5879      0.05975
     58       7.6595     -0.02569
     59       7.7550     -0.02841
     60       7.7972     -0.01881
[...]
     88      10.7640     -0.00000
     89      11.2616     -0.00000
     90      11.3950     -0.00000
     91      11.4374     -0.00000
     92      11.5079     -0.00000
     93      12.6030     -0.00000
     94      12.6782     -0.00000
     95      12.8628     -0.00000
     96      12.9201      0.00000
     97      14.5769      0.00000
     98      14.6400      0.00000
     99      15.0741      0.00000
    100      15.1097      0.00000
    101      15.4536      0.00000
    102      15.5152      0.00000

[...]

 soft charge-density along one line, spin component           2
         0         1         2         3         4         5         6         7         8         9
 total charge-density along one line

------------------------ aborting loop because EDIFF is reached ----------------------------------------

[...]

  FORCE on cell =-STRESS in cart. coord.  units (eV):
  Direction    XX          YY          ZZ          XY          YZ          ZX
  Alpha Z   868.92678   868.92678   868.92678
  Ewald   -4038.62404 -3974.68010 -3974.68007   -20.64218   -65.06888   -20.64220
  Hartree   876.43880   940.01823   940.01825   -19.91850   -67.33196   -19.91851
  E(xc)    -758.86814  -759.35532  -759.35532     0.08239     0.21519     0.08239
  Local     398.57993   267.60157   267.60153    41.31025   132.62037    41.31028
  n-local  -263.90058  -267.23427  -267.23428     0.28540     2.23970     0.28587
  augment  1717.26365  1721.23692  1721.23691    -0.55875    -0.78255    -0.55923
  Kinetic  1200.08961  1202.93200  1202.93200    -0.28890    -0.23551    -0.28890
  Fock        0.00000     0.00000     0.00000     0.00000     0.00000     0.00000
  Total      -0.09397    -0.55418    -0.55418     0.26970     1.65635     0.26970
  in kB      -0.82655    -4.87454    -4.87453     2.37230    14.56916     2.37227

 VOLUME and BASIS-vectors are now :
  energy-cutoff  :      520.00
  volume of cell :      182.15
      direct lattice vectors                 reciprocal lattice vectors
     7.142000000  3.571000000  3.571000000     0.070008401  0.070008401  0.070008401
    -7.142000000  3.571000000  3.571000000    -0.070008401  0.070008401  0.070008401
     0.000000000 -1.785500000  1.785500000     0.000000000 -0.280033604  0.280033604

  length of vectors
     8.747127871  8.747127871  2.525078316     0.121258108  0.121258108  0.396027321

 FORCES acting on ions
    electron-ion (+dipol)            ewald-force                    non-local-force                 convergence-correction
   -.111E+03 -.502E+02 -.502E+02   0.111E+03 0.502E+02 0.502E+02   -.351E+00 -.977E-01 -.977E-01   0.889E-01 0.125E+00 0.125E+00
   -.349E+02 0.603E+02 0.603E+02   0.348E+02 -.606E+02 -.606E+02   0.925E-02 0.203E+00 0.203E+00   0.741E-01 0.578E-01 0.578E-01
   0.328E+02 0.414E+02 0.414E+02   -.328E+02 -.415E+02 -.415E+02   0.651E-01 0.882E-01 0.882E-01   -.723E-01 -.100E-02 -.100E-02
   0.340E+02 -.103E+03 -.103E+03   -.344E+02 0.103E+03 0.103E+03   0.242E+00 -.207E+00 -.207E+00   0.135E+00 0.726E-01 0.726E-01
   0.257E+02 0.190E+01 0.190E+01   -.258E+02 -.177E+01 -.176E+01   0.167E+00 -.917E-01 -.917E-01   -.782E-01 -.531E-01 -.531E-01
   -.326E+02 0.508E+02 0.508E+02   0.326E+02 -.507E+02 -.507E+02   0.843E-01 -.435E-01 -.435E-01   -.462E-02 -.111E+00 -.111E+00
   0.113E+03 0.256E+01 0.256E+01   -.113E+03 -.257E+01 -.257E+01   0.139E+00 0.280E-01 0.280E-01   -.166E+00 -.191E-01 -.191E-01
   -.366E+02 -.448E+01 -.448E+01   0.369E+02 0.459E+01 0.459E+01   -.353E+00 0.211E-01 0.211E-01   0.144E-01 -.133E+00 -.133E+00
   -.814E+02 -.955E+01 -.955E+01   0.818E+02 0.931E+01 0.931E+01   -.400E+00 0.230E+00 0.230E+00   0.806E-02 0.103E-01 0.103E-01
   0.443E+02 0.155E+02 0.155E+02   -.445E+02 -.154E+02 -.154E+02   0.262E+00 -.188E+00 -.188E+00   -.112E+00 0.879E-01 0.879E-01
   -.258E+02 -.382E+02 -.382E+02   0.258E+02 0.387E+02 0.387E+02   0.178E-01 -.524E+00 -.524E+00   0.585E-01 0.208E-01 0.208E-01
   -.415E+02 -.679E+01 -.679E+01   0.416E+02 0.658E+01 0.658E+01   -.311E+00 0.199E+00 0.199E+00   0.197E+00 0.244E-01 0.244E-01
   -.448E+02 0.966E+02 0.966E+02   0.450E+02 -.967E+02 -.967E+02   -.267E+00 0.237E+00 0.237E+00   0.290E-01 -.753E-01 -.753E-01
   0.269E+02 -.531E+02 -.531E+02   -.268E+02 0.531E+02 0.531E+02   -.735E-01 -.133E+00 -.133E+00   -.322E-01 0.765E-01 0.765E-01
   0.107E+03 0.451E+02 0.451E+02   -.108E+03 -.452E+02 -.452E+02   0.741E+00 0.154E+00 0.154E+00   -.423E-01 -.635E-01 -.635E-01
   0.245E+02 -.488E+02 -.488E+02   -.244E+02 0.488E+02 0.488E+02   -.144E-01 0.832E-01 0.832E-01   -.906E-01 -.367E-01 -.367E-01
   0.333E-01 0.608E-01 0.608E-01   -.995E-13 -.639E-13 0.107E-12   -.426E-01 -.406E-01 -.406E-01   0.572E-02 -.172E-01 -.172E-01

 POSITION                                       TOTAL-FORCE (eV/Angst)
     -5.34927      1.78945      3.57495         0.000355     -0.013100     -0.013101
     -1.80378      1.78757      3.57307        -0.008844      0.009305      0.009304
     -1.77562      3.58655      5.37205        -0.017266     -0.000714     -0.000715
     -0.01614     -0.01577     -0.01577        -0.001319     -0.010308     -0.010307
      0.03098      5.36458      5.36458        -0.002426     -0.012018     -0.012018
      1.77224      3.54477      5.33027         0.018104      0.005862      0.005861
      3.54946      1.77178      1.77178         0.000869      0.000679      0.000679
      3.59665      3.58774      3.58774         0.013825     -0.004910     -0.004910
     -3.59490      1.77252      1.77252         0.005154      0.002031      0.002031
     -3.52974      3.59488      3.59488        -0.019652     -0.001341     -0.001341
     -1.75699     -0.00162      1.78388         0.003959     -0.002975     -0.002975
     -0.01147      1.80707      1.80707        -0.015649      0.008355      0.008356
     -0.04977      3.60064      3.60064        -0.002221      0.009276      0.009275
      1.74878     -0.02907      1.75643        -0.002664      0.008562      0.008562
      1.85459      1.79417      3.57968         0.013342      0.007274      0.007277
      5.33498      1.75473      3.54023         0.014433     -0.005977     -0.005977
    total drift:                               -0.003583      0.002892      0.002894

  FREE ENERGIE OF THE ION-ELECTRON SYSTEM (eV)
  free  energy   TOTEN  =      -109.89674246 eV

  energy  without entropy=     -109.90845841  energy(sigma->0) =     -109.90064778

 d Force = 0.6361857E-03[ 0.264E-03, 0.101E-02]  d Energy = 0.5644724E-03 0.717E-04
 d Force = 0.4279063E+00[ 0.410E+00, 0.446E+00]  d Ewald  = 0.4279032E+00 0.316E-05

 Conjugate gradient step on ions:
 trial-energy change:   -0.000564  1 .order   -0.000636   -0.001009   -0.000264
  (g-gl).g = 0.558E-03      g.g   = 0.577E-03  gl.gl    = 0.416E-02
 g(Force)  = 0.577E-03   g(Stress)= 0.000E+00 ortho     = 0.476E-04
 gamma     =   0.13421
 trial     =   1.72822
 opt step  =   2.33981  (harmonic =   2.33981) maximal distance =0.00534832
 next E    =  -109.896861   (d E  =  -0.00068)

 reached required accuracy - stopping structural energy minimisation

 total charge

[...]

 magnetization (x)

# of ion       s       p       d       tot
    1       -0.021  -0.044   0.698   0.634
    2       -0.029  -0.062   0.734   0.642
    3       -0.021  -0.046   0.648   0.581
    4       -0.026  -0.048   0.692   0.618
    5       -0.016  -0.037   0.651   0.597
    6       -0.021  -0.041   0.674   0.613
    7       -0.026  -0.053   0.693   0.615
    8       -0.024  -0.052   0.716   0.639
    9       -0.003  -0.025   2.662   2.633
   10       -0.002  -0.026   2.657   2.628
   11       -0.008  -0.036   2.559   2.515
   12       -0.012  -0.043   2.563   2.508
   13       -0.002  -0.025   2.690   2.663
   14       -0.007  -0.028   2.609   2.574
   15       -0.006  -0.034   2.651   2.611
   16        0.002  -0.018   2.727   2.710
tot         -0.224  -0.619  26.623  25.780