 vasp.5.4.4.18Apr17-6-g9f103f2a35 (build Dec 15 2018 21:27:11) complex

 executed on             LinuxIFC date 2022.02.23  04:07:05

 INCAR:
 POTCAR:    PAW_PBE Ni 02Aug2007
 POTCAR:    PAW_PBE O 08Apr2002
 POTCAR:    PAW_PBE H 15Jun2001

 POTCAR:    PAW_PBE Ni 02Aug2007
   VRHFIN =Ni:

   TITEL  = PAW_PBE Ni 02Aug2007
   POMASS =   58.690; ZVAL   =   10.000    mass and valenz
   ENMAX  =  269.532; ENMIN  =  202.149 eV

 POTCAR:    PAW_PBE O 08Apr2002
   VRHFIN =O: s2p4

   TITEL  = PAW_PBE O 08Apr2002
   POMASS =   16.000; ZVAL   =    6.000    mass and valenz
   ENMAX  =  400.000; ENMIN  =  300.000 eV

 POTCAR:    PAW_PBE H 15Jun2001
   VRHFIN =H: ultrasoft test

   TITEL  = PAW_PBE H 15Jun2001
   POMASS =    1.000; ZVAL   =    1.000    mass and valenz
   ENMAX  =  250.000; ENMIN  =  200.000 eV

 Optimization of the real space projectors (new method)

 maximal supplied QI-value         = 16.25
 optimisation between [QCUT,QGAM] = [ 11.54, 23.24] = [ 37.28,151.24] Ry
 Optimized for a Real-space Cutoff    1.45 Angstroem

   l    n(q)    QCUT    max X(q) W(low)/X(q) W(high)/X(q)  e(spline)
   2      9    11.539    60.317    0.19E-03    0.47E-04    0.16E-06
   2      9    11.539    55.921    0.19E-03    0.48E-04    0.16E-06
   0     10    11.539    51.690    0.80E-04    0.50E-04    0.24E-06
   0     10    11.539    30.015    0.73E-04    0.45E-04    0.22E-06
   1     10    11.539    18.849    0.87E-04    0.16E-03    0.71E-07
   1     10    11.539    14.624    0.73E-04    0.13E-03    0.64E-07
 Optimization of the real space projectors (new method)

[...]

   l    n(q)    QCUT    max X(q) W(low)/X(q) W(high)/X(q)  e(spline)
   0      8    11.635    20.381    0.10E-03    0.33E-03    0.24E-06
   0      8    11.635    15.268    0.11E-03    0.35E-03    0.26E-06
   1      7    11.635     5.964    0.24E-03    0.31E-03    0.30E-06
   1      7    11.635     5.382    0.22E-03    0.25E-03    0.26E-06
 Optimization of the real space projectors (new method)

 maximal supplied QI-value         = 34.20
 optimisation between [QCUT,QGAM] = [ 11.63, 23.26] = [ 37.87,151.49] Ry
 Optimized for a Real-space Cutoff    1.21 Angstroem

   l    n(q)    QCUT    max X(q) W(low)/X(q) W(high)/X(q)  e(spline)
   0      8    11.629    19.460    0.17E-03    0.34E-03    0.21E-06
   0      8    11.629    12.209    0.16E-03    0.33E-03    0.21E-06
   1      8    11.629     4.655    0.18E-03    0.16E-03    0.26E-06
  PAW_PBE Ni 02Aug2007                  :
  PAW_PBE O 08Apr2002                   :
  PAW_PBE H 15Jun2001                   :

 POSCAR: POSCAR
  positions in direct lattice
  velocities in cartesian coordinates
 exchange correlation table for  LEXCH =        8
   RHO(1)=    0.500       N(1)  =     2000
   RHO(2)=  100.500       N(2)  =     4000

 VTST: version 3.2, (02/03/18)

 CHAIN: initializing optimizer

 OPT: Using VASP Dynamics algorithm
 CHAIN: Read ICHAIN            0

 POSCAR: POSCAR
  positions in direct lattice
  velocities in cartesian coordinates

 ion  position               nearest neighbor table
   1  0.113  0.226  0.095-  15 2.49  19 2.49   3 2.49   5 2.49  13 2.49  17 2.49  21 2.49  49 2.49
                            61 2.49
   2  0.108  0.228  0.382-  65 1.82  14 2.40  18 2.43  20 2.45  62 2.48  22 2.51  24 2.52   6 2.52
                             4 2.52  50 2.57
   3  0.196  0.142  0.191-   4 2.44   8 2.45  24 2.46   5 2.49  49 2.49   1 2.49   7 2.49  15 2.49
                            19 2.49  23 2.49  51 2.49  63 2.49
   4  0.029  0.059  0.285-  62 2.43  15 2.44   3 2.44  63 2.44   8 2.49  24 2.49  64 2.49  16 2.49
                            20 2.49  52 2.50  50 2.52   2 2.52
   5  0.363  0.226  0.095-   3 2.49  23 2.49   7 2.49   9 2.49   1 2.49  21 2.49  25 2.49  49 2.49
                            53 2.49
   6  0.359  0.224  0.387-  65 1.86  69 1.96  50 2.52   2 2.52  22 2.52  54 2.52  10 2.53  26 2.55
                            24 2.56   8 2.56  28 2.56
   7  0.446  0.142  0.191-  12 2.45   8 2.46  28 2.49   9 2.49  53 2.49   5 2.49  11 2.49   3 2.49
                            23 2.49  51 2.49  27 2.49  55 2.49
   8  0.280  0.060  0.286-  54 2.41   3 2.45   7 2.46  51 2.46  24 2.47  28 2.49   4 2.49  52 2.50
                            12 2.50  56 2.51  50 2.52   6 2.56
   9  0.613  0.226  0.095-   7 2.49  27 2.49  11 2.49  13 2.49   5 2.49  25 2.49  29 2.49  53 2.49
                            57 2.49
  10  0.613  0.225  0.383-  68 1.89  69 1.93  28 2.49  12 2.51  32 2.51  54 2.52  30 2.52  58 2.52
                            14 2.52   6 2.53  26 2.53
  11  0.696  0.142  0.191-  16 2.44  12 2.45  32 2.45  13 2.49  57 2.49   9 2.49  15 2.49   7 2.49
                            27 2.49  55 2.49  31 2.49  59 2.49
  12  0.530  0.060  0.285-  54 2.42  11 2.45   7 2.45  55 2.46  32 2.47  16 2.49  60 2.49  28 2.49
                             8 2.50  56 2.50  10 2.51  58 2.53
  13  0.863  0.226  0.095-  11 2.49  31 2.49  15 2.49   9 2.49   1 2.49  29 2.49  17 2.49  57 2.49
                            61 2.49
  14  0.868  0.228  0.383-  68 1.84   2 2.40  18 2.43  20 2.46  62 2.49  30 2.50  10 2.52  32 2.53
                            16 2.53  58 2.56
  15  0.946  0.142  0.191-   4 2.44  16 2.45  20 2.48   1 2.49  61 2.49  13 2.49   3 2.49  11 2.49
                            31 2.49  59 2.49  19 2.49  63 2.49
  16  0.779  0.059  0.285-  62 2.43  11 2.44  15 2.45  59 2.45  32 2.49  12 2.49  60 2.49  20 2.49
                             4 2.49  64 2.49  58 2.53  14 2.53
  17  0.113  0.476  0.095-  31 2.49  35 2.49  19 2.49  21 2.49  29 2.49  13 2.49  33 2.49   1 2.49
                            37 2.49
  18  0.111  0.473  0.383-  67 1.84   2 2.43  14 2.43  20 2.47  30 2.47  22 2.48  36 2.53  40 2.53
                            34 2.54  38 2.54
  19  0.196  0.392  0.191-  40 2.44  24 2.47  20 2.48  21 2.49   1 2.49  17 2.49  31 2.49  23 2.49
                            15 2.49  35 2.49  39 2.49   3 2.49
  20  0.029  0.309  0.287-   2 2.45  14 2.46  18 2.47  31 2.47  19 2.48  15 2.48  36 2.49  40 2.49
                            16 2.49  32 2.49   4 2.49  24 2.50
  21  0.363  0.476  0.095-  19 2.49  39 2.49  23 2.49  25 2.49  17 2.49   5 2.49  37 2.49   1 2.49
                            41 2.49
  22  0.362  0.477  0.377-  40 2.41  44 2.41  24 2.41  18 2.48  38 2.48   2 2.51  42 2.51   6 2.52
                            26 2.52
  23  0.446  0.392  0.191-  24 2.46  44 2.46  28 2.48  25 2.49   5 2.49  21 2.49  19 2.49  27 2.49
                             7 2.49  39 2.49  43 2.49   3 2.49
  24  0.280  0.308  0.286-  22 2.41   3 2.46  23 2.46  19 2.47   8 2.47  28 2.48   4 2.49  20 2.50
                            44 2.50  40 2.50   2 2.52   6 2.56
  25  0.613  0.476  0.095-  23 2.49  43 2.49  27 2.49  29 2.49  21 2.49   9 2.49  41 2.49   5 2.49
                            45 2.49
  26  0.615  0.479  0.387-  66 1.86  69 1.96  46 2.52  42 2.52  22 2.52  30 2.52  10 2.53   6 2.55
                            44 2.56  48 2.56  28 2.56
  27  0.696  0.392  0.191-  32 2.45  48 2.46  28 2.49  29 2.49   9 2.49  25 2.49  23 2.49  31 2.49
                            11 2.49  43 2.49  47 2.49   7 2.49
  28  0.529  0.310  0.287-  44 2.48  24 2.48  23 2.48  48 2.49   8 2.49  10 2.49  27 2.49   7 2.49
                            32 2.49  12 2.49   6 2.56  26 2.56
  29  0.863  0.476  0.095-  27 2.49  47 2.49  31 2.49  25 2.49  17 2.49  13 2.49  33 2.49  45 2.49
                             9 2.49
  30  0.866  0.477  0.377-  36 2.40  48 2.41  32 2.42  18 2.47  34 2.47  14 2.50  46 2.51  10 2.52
                            26 2.52
  31  0.946  0.392  0.191-  36 2.44  32 2.46  20 2.47  17 2.49  13 2.49  29 2.49  27 2.49  19 2.49
                            15 2.49  35 2.49  11 2.49  47 2.49
  32  0.778  0.308  0.285-  30 2.42  11 2.45  27 2.45  31 2.46  12 2.47  16 2.49  20 2.49  28 2.49
                            48 2.50  36 2.50  10 2.51  14 2.53
  33  0.113  0.726  0.095-  47 2.49  51 2.49  35 2.49  37 2.49  45 2.49  29 2.49  49 2.49  17 2.49
                            53 2.49
  34  0.111  0.727  0.383-  67 1.84  46 2.43  50 2.43  52 2.47  54 2.47  30 2.47  56 2.53  36 2.53
                            18 2.54  38 2.54
  35  0.196  0.642  0.191-  36 2.44  56 2.44  40 2.44  37 2.49  17 2.49  33 2.49  47 2.49  39 2.49
                            31 2.49  51 2.49  55 2.49  19 2.49
  36  0.030  0.559  0.284-  30 2.40  35 2.44  47 2.44  31 2.44  52 2.49  20 2.49  56 2.49  40 2.49
                            32 2.50  48 2.51  34 2.53  18 2.53
  37  0.363  0.726  0.095-  35 2.49  55 2.49  39 2.49  41 2.49  33 2.49  21 2.49  53 2.49  17 2.49
                            57 2.49
  38  0.366  0.727  0.383-  67 1.84  42 2.43  58 2.43  60 2.47  54 2.47  22 2.48  56 2.53  40 2.53
                            34 2.54  18 2.54
  39  0.446  0.642  0.191-  40 2.44  44 2.47  60 2.48  41 2.49  21 2.49  37 2.49  35 2.49  43 2.49
                            23 2.49  55 2.49  59 2.49  19 2.49
  40  0.279  0.559  0.285-  22 2.41  35 2.44  39 2.44  19 2.44  36 2.49  56 2.49  20 2.49  60 2.49
                            44 2.50  24 2.50  18 2.53  38 2.53
  41  0.613  0.726  0.095-  39 2.49  59 2.49  43 2.49  45 2.49  37 2.49  25 2.49  57 2.49  21 2.49
                            61 2.49
  42  0.611  0.730  0.382-  66 1.82  58 2.40  38 2.43  60 2.45  62 2.48  22 2.51  44 2.52  26 2.52
                            64 2.52  46 2.57
  43  0.696  0.642  0.191-  64 2.44  48 2.45  44 2.46  45 2.49  25 2.49  41 2.49  39 2.49  47 2.49
                            27 2.49  59 2.49  63 2.49  23 2.49
  44  0.531  0.559  0.286-  22 2.41  43 2.46  23 2.46  39 2.47  48 2.47  28 2.48  64 2.49  60 2.50
                            24 2.50  40 2.50  42 2.52  26 2.56
  45  0.863  0.726  0.095-  43 2.49  63 2.49  47 2.49  41 2.49  33 2.49  29 2.49  49 2.49  61 2.49
                            25 2.49
  46  0.869  0.730  0.382-  66 1.82  50 2.39  34 2.43  52 2.46  62 2.49  30 2.51  26 2.52  48 2.52
                            64 2.52  42 2.57
  47  0.946  0.642  0.191-  36 2.44  48 2.46  52 2.47  33 2.49  29 2.49  45 2.49  43 2.49  35 2.49
                            31 2.49  51 2.49  27 2.49  63 2.49
  48  0.778  0.559  0.286-  30 2.41  43 2.45  27 2.46  47 2.46  44 2.47  28 2.49  64 2.49  52 2.50
                            32 2.50  36 2.51  46 2.52  26 2.56
  49  0.113  0.976  0.095-  63 2.49   3 2.49  51 2.49  61 2.49  53 2.49   1 2.49   5 2.49  33 2.49
                            45 2.49
  50  0.109  0.970  0.382-  65 1.82  46 2.39  34 2.43  52 2.46  62 2.49  54 2.51   6 2.52   8 2.52
                             4 2.52   2 2.57
  51  0.196  0.892  0.191-  56 2.44   8 2.46  52 2.47  53 2.49  33 2.49  49 2.49  55 2.49  63 2.49
                            35 2.49  47 2.49   3 2.49   7 2.49
  52  0.030  0.809  0.286-  46 2.46  50 2.46  51 2.47  47 2.47  63 2.47  34 2.47  56 2.49  36 2.49
                             4 2.50  64 2.50   8 2.50  48 2.50
  53  0.363  0.976  0.095-  51 2.49   7 2.49  55 2.49  49 2.49  57 2.49   5 2.49   9 2.49  33 2.49
                            37 2.49
  54  0.361  0.973  0.377-  56 2.40   8 2.41  12 2.42  38 2.47  34 2.47  58 2.50  50 2.51  10 2.52
                             6 2.52
[...]
   -.232E+00 0.136E+00 0.321E+04   0.287E+00 -.166E+00 -.321E+04   -.265E-01 0.148E-01 -.126E+01   -.149E-01 0.669E-02 -.418E-02
   0.410E+02 -.237E+02 -.282E+04   -.413E+02 0.238E+02 0.281E+04   0.235E+00 -.136E+00 0.316E+01   0.501E-03 -.579E-03 -.850E-04
   -.621E+00 0.352E+00 0.123E+04   0.668E+00 -.378E+00 -.123E+04   -.380E-01 0.220E-01 -.157E+00   -.956E-02 0.415E-02 -.753E-02
   0.808E+01 0.737E+00 -.791E+03   -.789E+01 -.761E+00 0.791E+03   -.203E+00 0.455E-01 0.240E+00   -.231E-02 0.172E-03 -.623E-02
   0.559E+00 0.518E-01 0.321E+04   -.558E+00 -.103E+00 -.321E+04   0.653E-02 0.248E-01 -.141E+01   -.806E-02 -.263E-02 -.661E-02
   0.168E+02 -.349E+02 -.273E+04   -.168E+02 0.360E+02 0.273E+04   0.310E-01 -.108E+01 0.132E+01   0.770E-02 -.361E-02 0.185E-02
   0.499E+01 0.820E-01 0.123E+04   -.507E+01 -.388E-01 -.123E+04   0.240E-01 -.367E-01 -.127E+00   0.117E-01 -.120E-01 -.255E-02
   0.975E+01 -.566E+01 -.798E+03   -.971E+01 0.563E+01 0.799E+03   -.519E-01 0.305E-01 -.958E+00   0.767E-02 -.407E-02 0.375E-02
   0.244E+00 -.988E-01 0.321E+04   -.281E+00 0.122E+00 -.321E+04   0.805E-02 -.882E-02 -.124E+01   0.145E-01 -.203E-01 -.345E-02
   -.459E+02 -.350E+02 -.280E+04   0.462E+02 0.353E+02 0.279E+04   -.388E+00 -.263E+00 0.320E+01   0.188E-02 -.503E-02 0.122E-02
   -.376E+01 0.268E+01 0.123E+04   0.385E+01 -.268E+01 -.123E+04   -.731E-01 -.156E-01 -.197E+00   0.468E-02 -.141E-01 -.132E-01
   -.121E+02 -.168E+01 -.769E+03   0.119E+02 0.161E+01 0.769E+03   0.260E+00 0.864E-01 0.147E+00   0.155E-02 -.540E-02 -.282E-02
   0.241E+00 -.137E+00 0.322E+04   -.270E+00 0.154E+00 -.321E+04   0.103E-01 -.652E-02 -.141E+01   0.186E-01 -.108E-01 -.496E-02
   0.894E+02 -.515E+02 -.285E+04   -.911E+02 0.525E+02 0.284E+04   0.167E+01 -.963E+00 0.434E+00   0.166E-02 -.190E-02 0.246E-02
   -.145E+01 0.841E+00 0.124E+04   0.146E+01 -.846E+00 -.124E+04   -.867E-02 0.513E-02 -.320E+00   0.115E-01 -.745E-02 -.884E-02
   -.108E+02 -.604E+01 -.778E+03   0.108E+02 0.603E+01 0.778E+03   0.268E-01 0.164E-01 0.490E+00   0.163E-02 -.455E-02 0.704E-03
   -.640E+00 0.298E+00 0.321E+04   0.627E+00 -.278E+00 -.321E+04   0.171E-02 -.219E-01 -.141E+01   0.120E-01 -.293E-02 -.288E-02
   -.919E+02 -.450E+02 -.285E+04   0.935E+02 0.459E+02 0.285E+04   -.165E+01 -.961E+00 0.414E+00   -.606E-02 0.735E-02 0.191E-02
   -.319E+01 -.157E+01 0.123E+04   0.318E+01 0.165E+01 -.123E+04   0.366E-01 -.651E-01 -.159E+00   -.681E-02 0.319E-02 -.165E-01
   0.539E+01 -.308E+01 -.782E+03   -.535E+01 0.306E+01 0.782E+03   -.376E-01 0.222E-01 0.493E+00   -.449E-02 0.180E-02 -.107E-01
   0.202E+00 0.478E+00 0.321E+04   -.243E+00 -.476E+00 -.321E+04   0.353E-01 0.896E-02 -.140E+01   -.206E-01 0.871E-02 -.205E-02
   0.114E+03 -.660E+02 -.282E+04   -.116E+03 0.669E+02 0.282E+04   0.173E+01 -.894E+00 0.274E+00   -.402E-03 0.391E-02 0.307E-02
   0.179E+01 0.167E+01 0.123E+04   -.177E+01 -.176E+01 -.123E+04   -.145E-01 0.538E-01 -.248E+00   -.113E-01 0.269E-02 -.332E-02
   0.336E+01 -.735E+01 -.791E+03   -.324E+01 0.720E+01 0.791E+03   -.140E+00 0.152E+00 0.241E+00   -.117E-02 0.124E-02 -.538E-02
   0.188E+00 0.782E-01 0.321E+04   -.113E+00 -.685E-01 -.321E+04   -.442E-01 0.617E-02 -.141E+01   -.101E-01 -.454E-03 -.572E-02
   -.111E+03 -.715E+02 -.282E+04   0.113E+03 0.723E+02 0.282E+04   -.173E+01 -.844E+00 0.292E+00   0.444E-02 -.407E-02 0.474E-02
   0.286E+01 -.313E+01 0.123E+04   -.288E+01 0.322E+01 -.123E+04   -.108E-01 -.624E-01 -.181E+00   0.662E-02 -.998E-02 0.243E-02
   0.237E+01 -.983E+01 -.784E+03   -.248E+01 0.971E+01 0.784E+03   0.135E+00 0.129E+00 0.289E+00   0.412E-02 -.617E-02 0.419E-02
   0.279E-01 -.204E+00 0.321E+04   0.112E-02 0.132E+00 -.321E+04   -.278E-01 0.344E-01 -.141E+01   -.473E-02 0.112E-01 -.543E-02
   0.634E+01 0.132E+03 -.282E+04   -.622E+01 -.134E+03 0.282E+04   -.132E+00 0.192E+01 0.292E+00   0.494E-02 -.200E-02 0.491E-02
   0.414E+01 -.904E+00 0.123E+04   -.423E+01 0.881E+00 -.123E+04   0.487E-01 0.410E-01 -.181E+00   0.109E-01 -.600E-04 0.192E-02
   -.742E+00 0.433E+00 -.804E+03   0.735E+00 -.429E+00 0.805E+03   -.248E-02 0.177E-02 -.119E+01   0.552E-02 -.346E-02 0.524E-02
   0.210E+00 -.164E+00 0.321E+04   -.246E+00 0.182E+00 -.321E+04   0.110E-01 -.290E-02 -.124E+01   0.232E-01 -.152E-02 -.369E-02
   0.742E+01 0.573E+02 -.280E+04   -.746E+01 -.577E+02 0.279E+04   0.341E-01 0.468E+00 0.320E+01   0.472E-02 0.829E-03 0.130E-02
   -.420E+01 0.191E+01 0.123E+04   0.424E+01 -.199E+01 -.123E+04   -.230E-01 0.711E-01 -.197E+00   0.138E-01 0.322E-02 -.131E-01
   -.150E+00 0.124E+02 -.778E+03   0.149E+00 -.124E+02 0.778E+03   -.389E-03 -.311E-01 0.489E+00   0.400E-02 0.283E-05 0.357E-03
   -.112E+00 0.509E+00 0.322E+04   0.799E-01 -.550E+00 -.321E+04   0.328E-01 0.496E-02 -.141E+01   0.673E-02 0.532E-02 0.136E-02
   -.142E+02 0.143E+03 -.282E+04   0.141E+02 -.145E+03 0.282E+04   0.772E-01 0.187E+01 0.234E+00   -.551E-02 0.691E-02 0.255E-02
   0.372E+01 0.368E+01 0.123E+04   -.380E+01 -.378E+01 -.123E+04   0.401E-01 0.693E-01 -.178E+00   -.131E-01 0.108E-01 -.188E-01
   0.134E+00 0.593E+01 -.809E+03   -.121E+00 -.596E+01 0.810E+03   -.979E-02 0.228E-01 -.118E+01   -.523E-02 0.455E-02 -.773E-02
   -.137E+00 0.765E-01 0.321E+04   0.164E+00 -.943E-01 -.321E+04   0.266E-02 -.193E-02 -.133E+01   -.252E-01 0.165E-01 -.232E-02
   -.252E+01 0.142E+01 -.285E+04   0.245E+01 -.138E+01 0.285E+04   0.806E-01 -.478E-01 0.340E+01   -.401E-02 0.261E-02 0.524E-02
   -.372E+01 0.214E+01 0.123E+04   0.384E+01 -.222E+01 -.123E+04   -.688E-01 0.403E-01 -.179E+00   -.115E-01 0.804E-02 -.254E-02
   0.724E+00 0.337E+01 -.781E+03   -.724E+00 -.329E+01 0.781E+03   0.611E-02 -.862E-01 0.452E+00   -.433E-02 -.652E-03 -.337E-02
   0.648E+02 0.329E+02 -.228E+04   -.654E+02 -.333E+02 0.231E+04   0.557E+00 0.382E+00 -.291E+02   0.254E-02 -.145E-02 0.208E-02
   0.384E+01 -.725E+02 -.228E+04   -.380E+01 0.732E+02 0.231E+04   -.484E-01 -.682E+00 -.291E+02   0.288E-02 -.173E-02 0.186E-02
   -.210E+01 0.123E+01 -.229E+04   0.210E+01 -.123E+01 0.232E+04   -.484E-02 0.225E-02 -.284E+02   -.263E-02 0.106E-02 0.136E-02
   -.766E+02 0.442E+02 -.226E+04   0.770E+02 -.444E+02 0.228E+04   -.308E+00 0.185E+00 -.267E+02   0.211E-03 0.667E-03 -.341E-02
   0.478E+02 -.279E+02 -.209E+04   -.553E+02 0.323E+02 0.208E+04   0.751E+01 -.438E+01 0.698E+01   0.183E-02 -.710E-03 -.166E-02
   0.110E+02 -.562E+01 -.208E+04   -.399E+02 0.219E+02 0.211E+04   0.289E+02 -.163E+02 -.301E+02   0.124E-02 -.593E-03 0.202E-02
   -.757E+02 0.429E+02 -.335E+03   0.827E+02 -.468E+02 0.334E+03   -.699E+01 0.396E+01 0.555E+00   0.428E-03 -.215E-03 0.286E-04
   -.301E+02 0.171E+02 0.142E+03   -.441E-12 -.176E-11 -.250E-11   0.301E+02 -.171E+02 -.141E+03   0.518E-02 -.241E-02 -.199E+00

 POSITION                                       TOTAL-FORCE (eV/Angst)
     -0.00000      1.94796      2.00000        -0.031031      0.012531      0.280224
     -0.05367      1.96475      8.07106         0.027464     -0.014009     -0.017544
      1.24593      1.22862      4.03457         0.019428      0.023615     -0.215215
     -0.00052      0.50991      6.00838         0.002322      0.000266     -0.028584
      2.49184      1.94796      2.00000         0.024410      0.013837      0.284000
      2.46359      1.93181      8.16325        -0.014373     -0.009783     -0.001496
      3.73777      1.22862      4.03457        -0.017556      0.041787     -0.164765
      2.48595      0.51953      6.02703         0.008106     -0.019528     -0.024278
      4.98369      1.94796      2.00000        -0.023403      0.013036      0.268580
      4.99015      1.94431      8.07862        -0.000637      0.000640     -0.004350
      6.22962      1.22862      4.03457        -0.001049      0.000695     -0.239639
      4.98710      0.51807      6.01910        -0.002015     -0.018037     -0.018377
      7.47553      1.94796      2.00000         0.029380      0.008312      0.273449
      7.51207      1.96589      8.07748        -0.010504     -0.013104     -0.011588
      8.72146      1.22862      4.03457        -0.010715      0.056381     -0.238570
      7.47236      0.51119      6.01224        -0.000191      0.000065     -0.031556
     -1.24593      4.10596      2.00000         0.003862      0.000648      0.267037
     -1.24763      4.07991      8.07588        -0.003848      0.009121      0.011827
      0.00000      3.38662      4.03457        -0.003392     -0.029906     -0.222798
     -1.24925      2.66944      6.04747        -0.001985     -0.000211     -0.032449
      1.24592      4.10596      2.00000         0.013887     -0.008465      0.175539
      1.22640      4.11735      7.95628         0.011996     -0.006832      0.031976
      2.49185      3.38662      4.03457        -0.000517      0.000584     -0.168142
      1.25149      2.65848      6.03257        -0.009290      0.017307     -0.015027
      3.73776      4.10596      2.00000        -0.000130     -0.028818      0.284087
      3.73775      4.13892      8.16350         0.001449      0.017450     -0.002221
      4.98369      3.38662      4.03457        -0.044789     -0.005327     -0.164891
      3.72936      2.67227      6.06198        -0.001791      0.001021     -0.016646
      6.22961      4.10596      2.00000        -0.013368     -0.006373      0.193216
      6.25112      4.11982      7.94672        -0.011528     -0.005125      0.037185
      7.47554      3.38662      4.03457         0.018973     -0.024311     -0.271296
      6.22380      2.66003      6.01907         0.014698      0.010915     -0.018378
     -2.49185      6.26396      2.00000        -0.000318     -0.000309      0.261452
     -2.51372      6.27672      8.07382        -0.001617      0.001174      0.007260
     -1.24592      5.54462      4.03457         0.012532     -0.007061     -0.288937
     -2.49048      4.82620      6.00332         0.005962      0.000562     -0.020810
     -0.00000      6.26396      2.00000         0.001062     -0.004346      0.266965
      0.02198      6.27882      8.07573        -0.009255     -0.000594      0.011427
      1.24593      5.54462      4.03457         0.024433      0.018164     -0.222673
     -0.00080      4.82582      6.00545        -0.006359      0.003785     -0.011164
      2.49184      6.26396      2.00000        -0.026809      0.019923      0.280263
      2.45046      6.30237      8.07096         0.026645     -0.016766     -0.017857
      3.73777      5.54462      4.03457        -0.010643     -0.028518     -0.215182
      2.50226      4.82495      6.03261        -0.019486     -0.000638     -0.015201
      4.98369      6.26396      2.00000         0.020847      0.015507      0.275758
      5.02255      6.30072      8.06822        -0.007175     -0.004639     -0.010029
      6.22962      5.54462      4.03457        -0.029987      0.018010     -0.243651
      4.97196      4.82536      6.02706         0.021157      0.002744     -0.024274
     -3.73777      8.42196      2.00000        -0.003527     -0.026411      0.275779
     -3.75001      8.37020      8.06836         0.000643      0.008862     -0.009361
     -2.49184      7.70262      4.03457        -0.030472      0.017238     -0.243798
     -3.73438      6.98142      6.04231        -0.004621      0.002940     -0.026510
     -1.24593      8.42196      2.00000        -0.001550      0.014057      0.193386
     -1.24710      8.39660      7.94680        -0.001348      0.012939      0.037230
      0.00000      7.70262      4.03457         0.030617     -0.003895     -0.271337
     -1.24599      6.98177      6.00333         0.002643     -0.005134     -0.020983
      1.24592      8.42196      2.00000         0.007076     -0.030288      0.273514
      1.24878      8.38165      8.07758         0.006190      0.015140     -0.012269
      2.49185      7.70262      4.03457        -0.053981     -0.018602     -0.238636
      1.24243      6.98526      6.04744        -0.000609      0.002085     -0.032927
      3.73776      8.42196      2.00000         0.004658     -0.003264      0.166663
      3.73179      8.42553      7.96914         0.004639     -0.002665      0.046403
      4.98369      7.70262      4.03457         0.047528     -0.027280     -0.242334
      3.73700      6.98350      6.00835         0.001125     -0.002028     -0.028829
      1.12447      1.15919      9.20355        -0.024690     -0.003427     -0.014267
      3.73733      5.68509      9.20333        -0.008090      0.022702     -0.014179
     -1.24563      5.54490      9.19029         0.000271      0.001422     -0.041217
      6.29919      1.18871      9.21749         0.027730     -0.016123     -0.012437
      3.79108      2.63634      9.42461         0.011252     -0.006612      0.023335
      4.09017      2.46097     10.90088         0.019430     -0.009096     -0.035862
      4.94726      1.97494     10.81525        -0.009768      0.002060     -0.004022
    total drift:                               -0.002023      0.000907      0.033887

  FREE ENERGIE OF THE ION-ELECTRON SYSTEM (eV)
  free  energy   TOTEN  =      -390.89316257 eV

  energy  without entropy=     -390.89316257  energy(sigma->0) =     -390.89316257

 stress matrix after NEB project (eV)
    -31.78323     -0.00674      0.19723
     -0.00674    -31.81546     -0.12555
      0.19723     -0.12555     -9.62281
  FORCES: max atom, RMS     0.046710    0.020566
  FORCE total and by dimension    0.173293    0.046403
  Stress total and by dimension   45.990267   31.815457
 writing wavefunctions

 total charge

[...]

 magnetization (x)

# of ion       s       p       d       tot
    1       -0.009  -0.026   0.706   0.671
    2       -0.003  -0.013   0.560   0.545
    3       -0.006  -0.025   0.772   0.741
    4       -0.006  -0.024   0.745   0.714
    5       -0.008  -0.026   0.705   0.671
    6       -0.003  -0.010   0.608   0.595
    7       -0.006  -0.025   0.756   0.725
    8       -0.006  -0.024   0.734   0.704
    9       -0.008  -0.026   0.712   0.678
   10       -0.005  -0.010   0.651   0.636
   11       -0.006  -0.027   0.769   0.737
   12       -0.006  -0.025   0.727   0.696
   13       -0.009  -0.025   0.706   0.672
   14       -0.004  -0.013   0.595   0.578
   15       -0.006  -0.026   0.743   0.711
   16       -0.007  -0.025   0.740   0.709
   17       -0.007  -0.025   0.712   0.679
   18       -0.003  -0.014   0.604   0.587
   19       -0.006  -0.025   0.733   0.702
   20       -0.006  -0.021   0.590   0.562
   21       -0.001  -0.026   0.748   0.721
   22       -0.011  -0.015   0.780   0.754
   23       -0.005  -0.025   0.748   0.717
   24       -0.006  -0.024   0.729   0.699
   25       -0.008  -0.026   0.705   0.671
   26       -0.003  -0.010   0.607   0.595
   27       -0.006  -0.025   0.756   0.725
   28       -0.006  -0.022   0.678   0.650
   29       -0.002  -0.025   0.759   0.732
   30       -0.011  -0.016   0.787   0.760
   31       -0.005  -0.025   0.734   0.704
   32       -0.006  -0.025   0.726   0.696
   33       -0.007  -0.025   0.723   0.691
   34       -0.003  -0.013   0.597   0.581
   35       -0.006  -0.025   0.777   0.747
   36       -0.006  -0.024   0.740   0.709
   37       -0.007  -0.025   0.712   0.679
   38       -0.003  -0.014   0.604   0.587
   39       -0.006  -0.025   0.733   0.702
   40       -0.006  -0.024   0.738   0.707
   41       -0.009  -0.026   0.706   0.671
   42       -0.003  -0.013   0.560   0.545
   43       -0.006  -0.025   0.772   0.741
   44       -0.006  -0.024   0.729   0.699
   45       -0.009  -0.026   0.706   0.672
   46       -0.003  -0.013   0.576   0.561
   47       -0.005  -0.025   0.742   0.712
   48       -0.006  -0.024   0.734   0.704
   49       -0.009  -0.026   0.706   0.672
   50       -0.003  -0.013   0.576   0.561
   51       -0.005  -0.025   0.742   0.712
   52       -0.006  -0.021   0.599   0.572
   53       -0.002  -0.025   0.759   0.732
   54       -0.011  -0.016   0.787   0.760
   55       -0.005  -0.025   0.734   0.704
   56       -0.006  -0.024   0.740   0.709
   57       -0.009  -0.025   0.706   0.672
   58       -0.004  -0.013   0.595   0.578
   59       -0.006  -0.026   0.743   0.711
   60       -0.006  -0.021   0.590   0.563
   61       -0.001  -0.026   0.735   0.708
   62       -0.011  -0.016   0.789   0.762
   63       -0.006  -0.025   0.741   0.710
   64       -0.006  -0.024   0.745   0.714
   65        0.002   0.117   0.000   0.119
   66        0.002   0.117   0.000   0.119
   67        0.002   0.122   0.000   0.124
   68        0.002   0.125   0.000   0.127
   69        0.012   0.158   0.000   0.170
   70        0.001   0.036   0.000   0.037
   71        0.001   0.001   0.000   0.002
tot         -0.350  -0.724  45.061  43.987

 BZINTS: Fermi energy:  0.540079;677.000000 electrons
         Band energy:***********;  BLOECHL correction: -0.042865