 vasp.5.4.4.18Apr17-6-g9f103f2a35 (build Dec 15 2018 21:27:54) gamma-only

 executed on             LinuxIFC date 2022.02.17  21:39:31

 INCAR:
 POTCAR:    PAW_PBE Ni 02Aug2007
 POTCAR:    PAW_PBE O 08Apr2002

 POTCAR:    PAW_PBE Ni 02Aug2007
   VRHFIN =Ni:

   TITEL  = PAW_PBE Ni 02Aug2007
   POMASS =   58.690; ZVAL   =   10.000    mass and valenz
   ENMAX  =  269.532; ENMIN  =  202.149 eV

 POTCAR:    PAW_PBE O 08Apr2002
   VRHFIN =O: s2p4

   TITEL  = PAW_PBE O 08Apr2002
   POMASS =   16.000; ZVAL   =    6.000    mass and valenz
   ENMAX  =  400.000; ENMIN  =  300.000 eV

 Optimization of the real space projectors (new method)

 maximal supplied QI-value         = 16.25
 optimisation between [QCUT,QGAM] = [ 11.54, 23.24] = [ 37.28,151.24] Ry
 Optimized for a Real-space Cutoff    1.45 Angstroem

   l    n(q)    QCUT    max X(q) W(low)/X(q) W(high)/X(q)  e(spline)
   2      9    11.539    60.317    0.19E-03    0.47E-04    0.16E-06
   2      9    11.539    55.921    0.19E-03    0.48E-04    0.16E-06
   0     10    11.539    51.690    0.80E-04    0.50E-04    0.24E-06
   0     10    11.539    30.015    0.73E-04    0.45E-04    0.22E-06
   1     10    11.539    18.849    0.87E-04    0.16E-03    0.71E-07
   1     10    11.539    14.624    0.73E-04    0.13E-03    0.64E-07
 Optimization of the real space projectors (new method)

 maximal supplied QI-value         = 24.76
 optimisation between [QCUT,QGAM] = [ 11.64, 23.27] = [ 37.91,151.63] Ry
 Optimized for a Real-space Cutoff    1.14 Angstroem

   l    n(q)    QCUT    max X(q) W(low)/X(q) W(high)/X(q)  e(spline)
   0      8    11.635    20.381    0.10E-03    0.33E-03    0.24E-06
   0      8    11.635    15.268    0.11E-03    0.35E-03    0.26E-06
   1      7    11.635     5.964    0.24E-03    0.31E-03    0.30E-06
   1      7    11.635     5.382    0.22E-03    0.25E-03    0.26E-06
  PAW_PBE Ni 02Aug2007                  :
  PAW_PBE O 08Apr2002                   :

 POSCAR: POSCAR
  positions in direct lattice
  velocities in cartesian coordinates
 exchange correlation table for  LEXCH =        8
   RHO(1)=    0.500       N(1)  =     2000
   RHO(2)=  100.500       N(2)  =     4000

 VTST: version 3.2, (02/03/18)

 CHAIN: initializing optimizer

 OPT: Using VASP Dynamics algorithm
 CHAIN: Read ICHAIN            0

 POSCAR: POSCAR
  positions in direct lattice
  velocities in cartesian coordinates

 ion  position               nearest neighbor table
   1  0.113  0.226  0.095-  15 2.49  19 2.49   3 2.49   5 2.49  13 2.49  17 2.49  21 2.49  49 2.49
                            61 2.49
   2  0.111  0.228  0.383-  65 1.84  14 2.43  18 2.43  20 2.47  22 2.49  62 2.50  24 2.52   4 2.52
                             6 2.55  50 2.55
   3  0.196  0.142  0.191-  24 2.44   4 2.44   8 2.44   5 2.49  49 2.49   1 2.49   7 2.49  15 2.49
                            19 2.49  23 2.49  51 2.49  63 2.49
   4  0.030  0.059  0.285-  62 2.43   3 2.44  63 2.44  15 2.44  24 2.49   8 2.49  52 2.49  20 2.49
                            16 2.50  64 2.50   2 2.52  50 2.52
   5  0.363  0.226  0.095-   3 2.49  23 2.49   7 2.49   9 2.49   1 2.49  21 2.49  25 2.49  49 2.49
                            53 2.49
   6  0.367  0.227  0.383-  65 1.84  10 2.43  26 2.43  28 2.47  54 2.49  22 2.49   8 2.52  24 2.53
                            50 2.55   2 2.55
   7  0.446  0.142  0.191-   8 2.44  12 2.44  28 2.47   9 2.49  53 2.49   5 2.49  11 2.49   3 2.49
                            23 2.49  51 2.49  27 2.49  55 2.49
   8  0.279  0.059  0.285-  54 2.43   3 2.44  51 2.44   7 2.44  24 2.49   4 2.49  52 2.49  28 2.49
                            56 2.50  12 2.50   6 2.52  50 2.52
   9  0.613  0.226  0.095-   7 2.49  27 2.49  11 2.49  13 2.49   5 2.49  25 2.49  29 2.49  53 2.49
                            57 2.49
  10  0.611  0.227  0.383-  68 1.84   6 2.43  26 2.43  28 2.47  54 2.49  30 2.49  12 2.52  32 2.53
                            58 2.55  14 2.55
  11  0.696  0.142  0.191-  32 2.44  16 2.44  12 2.44  13 2.49  57 2.49   9 2.49  15 2.49   7 2.49
                            27 2.49  55 2.49  31 2.49  59 2.49
  12  0.530  0.059  0.285-  54 2.43  11 2.44  55 2.44   7 2.44  16 2.49  32 2.49  60 2.49  28 2.49
                            56 2.50   8 2.50  10 2.52  58 2.53
  13  0.863  0.226  0.095-  11 2.49  31 2.49  15 2.49   9 2.49   1 2.49  29 2.49  17 2.49  57 2.49
                            61 2.49
  14  0.867  0.228  0.383-  68 1.84   2 2.43  18 2.43  20 2.47  30 2.49  62 2.49  16 2.52  32 2.52
                            58 2.55  10 2.55
  15  0.946  0.142  0.191-   4 2.44  16 2.44  20 2.47   1 2.49  61 2.49  13 2.49   3 2.49  11 2.49
                            31 2.49  59 2.49  19 2.49  63 2.49
  16  0.779  0.059  0.285-  62 2.43  11 2.44  59 2.44  15 2.44  32 2.49  12 2.49  60 2.49  20 2.49
                             4 2.50  64 2.50  14 2.52  58 2.53
  17  0.113  0.476  0.095-  31 2.49  35 2.49  19 2.49  21 2.49  29 2.49  13 2.49  33 2.49   1 2.49
                            37 2.49
  18  0.111  0.472  0.383-  67 1.84   2 2.43  14 2.43  20 2.47  22 2.49  30 2.49  40 2.52  36 2.52
                            38 2.55  34 2.55
  19  0.196  0.392  0.191-  40 2.44  24 2.44  20 2.47  21 2.49   1 2.49  17 2.49  31 2.49  23 2.49
                            15 2.49  35 2.49  39 2.49   3 2.49
  20  0.030  0.309  0.286-   2 2.47  14 2.47  18 2.47  19 2.47  15 2.47  31 2.47  40 2.49  36 2.49
                            24 2.49   4 2.49  32 2.49  16 2.49
  21  0.363  0.476  0.095-  19 2.49  39 2.49  23 2.49  25 2.49  17 2.49   5 2.49  37 2.49   1 2.49
                            41 2.49
  22  0.363  0.476  0.377-  24 2.43  44 2.43  40 2.43   2 2.49  18 2.49  42 2.49  26 2.49   6 2.49
                            38 2.50
  23  0.446  0.392  0.191-  24 2.44  44 2.44  28 2.47  25 2.49   5 2.49  21 2.49  19 2.49  27 2.49
                             7 2.49  39 2.49  43 2.49   3 2.49
  24  0.279  0.309  0.285-  22 2.43   3 2.44  23 2.44  19 2.44   8 2.49   4 2.49  28 2.49  20 2.49
                            44 2.50  40 2.50   2 2.52   6 2.53
  25  0.613  0.476  0.095-  23 2.49  43 2.49  27 2.49  29 2.49  21 2.49   9 2.49  41 2.49   5 2.49
                            45 2.49
  26  0.611  0.472  0.383-  66 1.84   6 2.43  10 2.43  28 2.47  22 2.49  30 2.49  44 2.53  48 2.53
                            42 2.55  46 2.55
  27  0.696  0.392  0.191-  48 2.44  32 2.44  28 2.47  29 2.49   9 2.49  25 2.49  23 2.49  31 2.49
                            11 2.49  43 2.49  47 2.49   7 2.49
  28  0.529  0.309  0.286-   6 2.47  10 2.47  26 2.47   7 2.47  27 2.47  23 2.47  24 2.49   8 2.49
                            12 2.49  48 2.49  32 2.49  44 2.49
  29  0.863  0.476  0.095-  27 2.49  47 2.49  31 2.49  25 2.49  17 2.49  13 2.49  33 2.49  45 2.49
                             9 2.49
  30  0.863  0.476  0.377-  32 2.43  48 2.43  36 2.43  14 2.49  18 2.49  46 2.49  26 2.49  10 2.49
                            34 2.49
  31  0.946  0.392  0.191-  36 2.44  32 2.44  20 2.47  17 2.49  13 2.49  29 2.49  27 2.49  19 2.49
                            15 2.49  35 2.49  11 2.49  47 2.49
  32  0.779  0.309  0.285-  30 2.43  11 2.44  31 2.44  27 2.44  16 2.49  12 2.49  28 2.49  20 2.49
                            48 2.50  36 2.50  14 2.52  10 2.53
  33  0.113  0.726  0.095-  47 2.49  51 2.49  35 2.49  37 2.49  45 2.49  29 2.49  49 2.49  17 2.49
                            53 2.49
  34  0.111  0.728  0.383-  67 1.84  46 2.43  50 2.43  52 2.47  54 2.49  30 2.49  36 2.52  56 2.52
                            18 2.55  38 2.55
  35  0.196  0.642  0.191-  56 2.44  36 2.44  40 2.44  37 2.49  17 2.49  33 2.49  47 2.49  39 2.49
                            31 2.49  51 2.49  55 2.49  19 2.49
  36  0.030  0.559  0.285-  30 2.43  35 2.44  31 2.44  47 2.44  56 2.49  40 2.49  20 2.49  52 2.49
                            48 2.50  32 2.50  34 2.52  18 2.52
  37  0.363  0.726  0.095-  35 2.49  55 2.49  39 2.49  41 2.49  33 2.49  21 2.49  53 2.49  17 2.49
                            57 2.49
  38  0.367  0.728  0.383-  67 1.84  42 2.43  58 2.43  60 2.47  54 2.49  22 2.50  40 2.52  56 2.53
                            18 2.55  34 2.55
  39  0.446  0.642  0.191-  40 2.44  44 2.44  60 2.47  41 2.49  21 2.49  37 2.49  35 2.49  43 2.49
                            23 2.49  55 2.49  59 2.49  19 2.49
  40  0.279  0.559  0.285-  22 2.43  35 2.44  19 2.44  39 2.44  56 2.49  36 2.49  60 2.49  20 2.49
                            44 2.50  24 2.50  18 2.52  38 2.52
  41  0.613  0.726  0.095-  39 2.49  59 2.49  43 2.49  45 2.49  37 2.49  25 2.49  57 2.49  21 2.49
                            61 2.49
  42  0.611  0.727  0.383-  66 1.84  38 2.43  58 2.43  60 2.47  22 2.49  62 2.50  44 2.52  64 2.53
                            26 2.55  46 2.55
  43  0.696  0.642  0.191-  64 2.44  48 2.44  44 2.44  45 2.49  25 2.49  41 2.49  39 2.49  47 2.49
                            27 2.49  59 2.49  63 2.49  23 2.49
  44  0.530  0.559  0.285-  22 2.43  43 2.44  23 2.44  39 2.44  48 2.49  64 2.49  28 2.49  60 2.49
                            24 2.50  40 2.50  42 2.52  26 2.53
  45  0.863  0.726  0.095-  43 2.49  63 2.49  47 2.49  41 2.49  33 2.49  29 2.49  49 2.49  61 2.49
                            25 2.49
  46  0.867  0.727  0.383-  66 1.84  34 2.43  50 2.43  52 2.47  62 2.49  30 2.49  48 2.52  64 2.52
                            42 2.55  26 2.55
  47  0.946  0.642  0.191-  36 2.44  48 2.44  52 2.47  33 2.49  29 2.49  45 2.49  43 2.49  35 2.49
                            31 2.49  51 2.49  27 2.49  63 2.49
  48  0.779  0.559  0.285-  30 2.43  43 2.44  27 2.44  47 2.44  44 2.49  64 2.49  28 2.49  52 2.49
                            32 2.50  36 2.50  46 2.52  26 2.53
  49  0.113  0.976  0.095-  63 2.49   3 2.49  51 2.49  61 2.49  53 2.49   1 2.49   5 2.49  33 2.49
                            45 2.49
  50  0.111  0.972  0.383-  65 1.84  34 2.43  46 2.43  52 2.47  62 2.49  54 2.49   4 2.52   8 2.52
                             6 2.55   2 2.55
  51  0.196  0.892  0.191-   8 2.44  56 2.44  52 2.47  53 2.49  33 2.49  49 2.49  55 2.49  63 2.49
                            35 2.49  47 2.49   3 2.49   7 2.49
  52  0.029  0.809  0.286-  34 2.47  50 2.47  46 2.47  47 2.47  63 2.47  51 2.47   8 2.49  64 2.49
                             4 2.49  36 2.49  56 2.49  48 2.49
  53  0.363  0.976  0.095-  51 2.49   7 2.49  55 2.49  49 2.49  57 2.49   5 2.49   9 2.49  33 2.49
                            37 2.49
  54  0.363  0.976  0.377-  56 2.43  12 2.43   8 2.43  34 2.49  38 2.49   6 2.49  10 2.49  50 2.49
                            58 2.50
  55  0.446  0.892  0.191-  12 2.44  56 2.44  60 2.47  57 2.49  37 2.49  53 2.49  59 2.49  51 2.49
                            11 2.49  39 2.49   7 2.49  35 2.49
  56  0.279  0.809  0.285-  54 2.43  35 2.44  51 2.44  55 2.44  40 2.49  36 2.49  60 2.49  52 2.49
                             8 2.50  12 2.50  34 2.52  38 2.53
  57  0.613  0.976  0.095-  55 2.49  11 2.49  59 2.49  53 2.49  61 2.49   9 2.49  13 2.49  37 2.49
                            41 2.49
  58  0.611  0.972  0.383-  68 1.84  38 2.43  42 2.43  60 2.47  62 2.49  54 2.50  12 2.53  16 2.53
                            10 2.55  14 2.55
[...]
      3.73776      8.42196      2.00000         0.000035     -0.000469     -0.071498
      3.73796      8.42116      7.95909         0.002358     -0.000892      0.156851
      4.98369      7.70262      4.03457         0.034975     -0.021095     -0.091423
      3.73757      6.97986      6.00871         0.000514      0.025785     -0.035196
      1.24550      1.22844      9.17493         0.000626      0.001949     -0.306608
      3.73794      5.54388      9.17393        -0.002390     -0.000484     -0.286083
     -1.24627      5.54458      9.17458         0.002123      0.000540     -0.302518
      6.23052      1.22872      9.15901        -0.000984     -0.001005     -0.065186
    total drift:                               -0.000157     -0.001533      0.034098

  FREE ENERGIE OF THE ION-ELECTRON SYSTEM (eV)
  free  energy   TOTEN  =      -377.94362635 eV

  energy  without entropy=     -373.92224426  energy(sigma->0) =     -375.93293531

 d Force = 0.8555092E-02[ 0.196E-02, 0.152E-01]  d Energy = 0.8637116E-02-0.820E-04
 d Force =-0.7009549E+02[-0.701E+02,-0.701E+02]  d Ewald  =-0.7009694E+02 0.144E-02

 stress matrix after NEB project (eV)
    -48.96019      0.00107     -0.00166
      0.00107    -48.94438      0.01429
     -0.00166      0.01429     -0.39124
  FORCES: max atom, RMS     0.306614    0.063203
  FORCE total and by dimension    0.521187    0.306608
  Stress total and by dimension   69.230095   48.960186
 Finite differences progress:
  Degree of freedom:  12/ 12
  Displacement:        2/  2
  Total:              24/ 24

 SECOND DERIVATIVES (NOT SYMMETRIZED)
              65X         65Y         65Z         66X         66Y         66Z         67X         67Y         67Z         68X         68Y         68Z
 65X    -9.044530    0.023400    0.033882    0.028191   -0.018177   -0.137017    0.013572    0.017863    0.130120   -0.010976   -0.008627   -0.004492
 65Y    -0.065178   -9.027835    0.025152   -0.021061    0.002163    0.064492    0.013828   -0.008025    0.055732    0.004824    0.040977   -0.164225
 65Z    -0.000671   -0.020769  -14.620204   -0.126552    0.082160    0.082346    0.126294    0.081921    0.081883   -0.000548   -0.171158    0.084187
 66X     0.018239   -0.022090   -0.204438   -9.048601    0.027263    0.018685   -0.009011   -0.009093    0.006121    0.008723    0.003453    0.137813
 66Y    -0.019410   -0.001370    0.075825   -0.033603   -9.027259    0.011972    0.000619    0.035088   -0.155467    0.023837    0.000943    0.073736
 66Z    -0.125975    0.082562    0.081796   -0.025630   -0.011047  -14.694453    0.000801   -0.171804    0.084951    0.126655    0.081453    0.083649
 67X     0.020675    0.020901    0.130756   -0.010147   -0.005697   -0.041758   -9.014215    0.010944    0.012171    0.026570   -0.015175   -0.135825
 67Y     0.022809   -0.004624    0.063549   -0.009387    0.051320   -0.151691   -0.054283   -9.036992    0.016367   -0.039504   -0.003898    0.074716
 67Z     0.126377    0.082432    0.082524   -0.000089   -0.170999    0.085007   -0.014695   -0.036417  -14.657524   -0.126118    0.082513    0.082825
 68X    -0.008393   -0.008519    0.007054    0.009760    0.004536    0.138534    0.019131   -0.021523   -0.202921   -9.075195   -0.019813    0.023681
 68Y     0.000703    0.035469   -0.155880    0.023403    0.001228    0.073487   -0.019217   -0.001081    0.077078   -0.042396   -9.020224   -0.001603
 68Z    -0.000586   -0.171362    0.084832    0.126191    0.082459    0.082919   -0.126265    0.082442    0.083108    0.007690   -0.025226  -14.665576

 Eigenvectors and eigenvalues of the dynamical matrix

   1 f  =   15.028694 THz    94.428070 2PiTHz  501.303261 cm-1    62.153705 meV
             X         Y         Z           dx          dy          dz
     -0.000005  1.947959  2.000002            0           0           0
     -0.028526  1.964416  8.072213            0           0           0
      1.245927  1.228619  4.034573            0           0           0
      0.002326  0.510541  6.008531            0           0           0
      2.491840  1.947959  2.000002            0           0           0
      2.520643  1.963390  8.072744            0           0           0
      3.737772  1.228619  4.034573            0           0           0
      2.489250  0.510185  6.008603            0           0           0
      4.983685  1.947959  2.000002            0           0           0
      4.955058  1.963370  8.072932            0           0           0
      6.229617  1.228619  4.034573            0           0           0
      4.986435  0.510168  6.008933            0           0           0
      7.475530  1.947959  2.000002            0           0           0
      7.504820  1.964292  8.072409            0           0           0
      8.721462  1.228619  4.034573            0           0           0
      7.473085  0.510491  6.008812            0           0           0
     -1.245927  4.105960  2.000002            0           0           0
     -1.245636  4.072843  8.072515            0           0           0
      0.000005  3.386620  4.034573            0           0           0
     -1.245669  2.667392  6.045309            0           0           0
      1.245918  4.105960  2.000002            0           0           0
      1.245905  4.104928  7.959113            0           0           0
      2.491850  3.386620  4.034573            0           0           0
      1.246163  2.663969  6.008452            0           0           0
      3.737763  4.105960  2.000002            0           0           0
      3.737654  4.071786  8.073502            0           0           0
      4.983695  3.386620  4.034573            0           0           0
      3.737795  2.666533  6.045614            0           0           0
      6.229608  4.105960  2.000002            0           0           0
      6.229738  4.105107  7.959150            0           0           0
      7.475540  3.386620  4.034573            0           0           0
      6.229646  2.663893  6.008666            0           0           0
     -2.491850  6.263961  2.000002            0           0           0
     -2.520793  6.280291  8.072219            0           0           0
     -1.245918  5.544621  4.034573            0           0           0
     -2.489482  4.826490  6.008600            0           0           0
     -0.000005  6.263961  2.000002            0           0           0
      0.028766  6.280163  8.072838            0           0           0
      1.245927  5.544621  4.034573            0           0           0
     -0.002331  4.826628  6.008691            0           0           0
      2.491840  6.263961  2.000002            0           0           0
      2.463022  6.279432  8.073161            0           0           0
      3.737772  5.544621  4.034573            0           0           0
      2.494545  4.826187  6.008940            0           0           0
      4.983685  6.263961  2.000002            0           0           0
      5.012219  6.279716  8.072461            0           0           0
      6.229617  5.544621  4.034573            0           0           0
      4.981007  4.826091  6.008858            0           0           0
     -3.737772  8.421962  2.000002            0           0           0
     -3.738076  8.388483  8.072530            0           0           0
     -2.491840  7.702622  4.034573            0           0           0
     -3.738009  6.983082  6.045443            0           0           0
     -1.245927  8.421962  2.000002            0           0           0
     -1.246066  8.420937  7.959032            0           0           0
      0.000005  7.702622  4.034573            0           0           0
     -1.245939  6.979954  6.008450            0           0           0
      1.245918  8.421962  2.000002            0           0           0
      1.246262  8.388301  8.073393            0           0           0
      2.491850  7.702622  4.034573            0           0           0
      1.245984  6.982963  6.045678            0           0           0
      3.737763  8.421962  2.000002            0           0           0
      3.737955  8.421163  7.959090            0           0           0
      4.983695  7.702622  4.034573            0           0           0
      3.737565  6.979857  6.008707            0           0           0
      1.245503  1.228441  9.174929     0.027444   -0.016538   -0.107834
      3.737940  5.543881  9.173930     0.005252   -0.003746    0.870138
     -1.246275  5.544584  9.174584    -0.002032    0.029590   -0.340356
      6.230516  1.228725  9.174013    -0.028875   -0.010851   -0.335395

[...]

  12 f  =   11.698063 THz    73.501098 2PiTHz  390.205372 cm-1    48.379318 meV
             X         Y         Z           dx          dy          dz
     -0.000005  1.947959  2.000002            0           0           0
     -0.028526  1.964416  8.072213            0           0           0
      1.245927  1.228619  4.034573            0           0           0
      0.002326  0.510541  6.008531            0           0           0
      2.491840  1.947959  2.000002            0           0           0
      2.520643  1.963390  8.072744            0           0           0
      3.737772  1.228619  4.034573            0           0           0
      2.489250  0.510185  6.008603            0           0           0
      4.983685  1.947959  2.000002            0           0           0
      4.955058  1.963370  8.072932            0           0           0
      6.229617  1.228619  4.034573            0           0           0
      4.986435  0.510168  6.008933            0           0           0
      7.475530  1.947959  2.000002            0           0           0
      7.504820  1.964292  8.072409            0           0           0
      8.721462  1.228619  4.034573            0           0           0
      7.473085  0.510491  6.008812            0           0           0
     -1.245927  4.105960  2.000002            0           0           0
     -1.245636  4.072843  8.072515            0           0           0
      0.000005  3.386620  4.034573            0           0           0
     -1.245669  2.667392  6.045309            0           0           0
      1.245918  4.105960  2.000002            0           0           0
      1.245905  4.104928  7.959113            0           0           0
      2.491850  3.386620  4.034573            0           0           0
      1.246163  2.663969  6.008452            0           0           0
      3.737763  4.105960  2.000002            0           0           0
      3.737654  4.071786  8.073502            0           0           0
      4.983695  3.386620  4.034573            0           0           0
      3.737795  2.666533  6.045614            0           0           0
      6.229608  4.105960  2.000002            0           0           0
      6.229738  4.105107  7.959150            0           0           0
      7.475540  3.386620  4.034573            0           0           0
      6.229646  2.663893  6.008666            0           0           0
     -2.491850  6.263961  2.000002            0           0           0
     -2.520793  6.280291  8.072219            0           0           0
     -1.245918  5.544621  4.034573            0           0           0
     -2.489482  4.826490  6.008600            0           0           0
     -0.000005  6.263961  2.000002            0           0           0
      0.028766  6.280163  8.072838            0           0           0
      1.245927  5.544621  4.034573            0           0           0
     -0.002331  4.826628  6.008691            0           0           0
      2.491840  6.263961  2.000002            0           0           0
      2.463022  6.279432  8.073161            0           0           0
      3.737772  5.544621  4.034573            0           0           0
      2.494545  4.826187  6.008940            0           0           0
      4.983685  6.263961  2.000002            0           0           0
      5.012219  6.279716  8.072461            0           0           0
      6.229617  5.544621  4.034573            0           0           0
      4.981007  4.826091  6.008858            0           0           0
     -3.737772  8.421962  2.000002            0           0           0
     -3.738076  8.388483  8.072530            0           0           0
     -2.491840  7.702622  4.034573            0           0           0
     -3.738009  6.983082  6.045443            0           0           0
     -1.245927  8.421962  2.000002            0           0           0
     -1.246066  8.420937  7.959032            0           0           0
      0.000005  7.702622  4.034573            0           0           0
     -1.245939  6.979954  6.008450            0           0           0
      1.245918  8.421962  2.000002            0           0           0
      1.246262  8.388301  8.073393            0           0           0
      2.491850  7.702622  4.034573            0           0           0
      1.245984  6.982963  6.045678            0           0           0
      3.737763  8.421962  2.000002            0           0           0
      3.737955  8.421163  7.959090            0           0           0
      4.983695  7.702622  4.034573            0           0           0
      3.737565  6.979857  6.008707            0           0           0
      1.245503  1.228441  9.174929    -0.184438    0.484458   -0.000671
      3.737940  5.543881  9.173930    -0.165389   -0.341194    0.030028
     -1.246275  5.544584  9.174584     0.470155   -0.562038    0.009061
      6.230516  1.228725  9.174013     0.172272    0.135217   -0.040476

 Finite differences POTIM=  1.500000000000000E-002

 total charge

# of ion       s       p       d       tot
    1        0.483   0.358   8.330   9.172
    2        0.489   0.496   8.338   9.322
    3        0.494   0.491   8.340   9.325
    4        0.494   0.487   8.351   9.332
    5        0.483   0.358   8.330   9.172
    6        0.489   0.496   8.338   9.322
    7        0.490   0.487   8.342   9.320
    8        0.494   0.487   8.351   9.332
    9        0.483   0.358   8.330   9.172
   10        0.490   0.500   8.340   9.330
   11        0.494   0.491   8.340   9.325
   12        0.494   0.487   8.351   9.332
   13        0.483   0.358   8.330   9.172
   14        0.490   0.500   8.340   9.330
   15        0.490   0.487   8.342   9.320
   16        0.494   0.487   8.351   9.332
   17        0.483   0.358   8.330   9.172
   18        0.489   0.496   8.338   9.322
   19        0.490   0.487   8.342   9.320
   20        0.501   0.500   8.333   9.333
   21        0.482   0.358   8.331   9.171
   22        0.476   0.358   8.389   9.223
   23        0.490   0.487   8.342   9.320
   24        0.494   0.487   8.351   9.332
   25        0.483   0.358   8.330   9.172
   26        0.489   0.496   8.338   9.322
   27        0.490   0.487   8.342   9.320
   28        0.501   0.499   8.333   9.333
   29        0.482   0.358   8.331   9.171
   30        0.476   0.358   8.389   9.223
   31        0.490   0.487   8.342   9.320
   32        0.494   0.487   8.351   9.332
   33        0.483   0.358   8.330   9.172
   34        0.489   0.496   8.338   9.322
   35        0.494   0.491   8.340   9.325
   36        0.494   0.487   8.351   9.332
   37        0.483   0.358   8.330   9.172
   38        0.489   0.496   8.338   9.322
   39        0.490   0.487   8.342   9.320
   40        0.494   0.487   8.351   9.332
   41        0.483   0.358   8.330   9.172
   42        0.489   0.496   8.338   9.323
   43        0.493   0.491   8.340   9.325
   44        0.494   0.487   8.351   9.332
   45        0.483   0.358   8.330   9.172
   46        0.489   0.496   8.338   9.323
   47        0.490   0.487   8.342   9.320
   48        0.494   0.487   8.351   9.332
   49        0.483   0.358   8.330   9.172
   50        0.489   0.496   8.338   9.322
   51        0.490   0.487   8.342   9.320
   52        0.501   0.499   8.333   9.333
   53        0.482   0.358   8.331   9.171
   54        0.476   0.358   8.389   9.223
   55        0.490   0.487   8.342   9.320
   56        0.494   0.487   8.351   9.332
   57        0.483   0.358   8.330   9.172
   58        0.490   0.500   8.340   9.330
   59        0.490   0.487   8.342   9.320
   60        0.501   0.499   8.333   9.333
   61        0.482   0.358   8.331   9.171
   62        0.476   0.358   8.389   9.223
   63        0.490   0.487   8.342   9.320
   64        0.494   0.487   8.351   9.332
   65        1.583   3.332   0.000   4.915
   66        1.583   3.333   0.000   4.915
   67        1.583   3.332   0.000   4.915
   68        1.583   3.339   0.000   4.922
tot         37.617  42.115 533.914 613.646