 vasp.5.4.4.18Apr17-6-g9f103f2a35 (build Dec 15 2018 21:27:11) complex

 executed on             LinuxIFC date 2022.03.06  06:02:01

 INCAR:
 POTCAR:    PAW_PBE Fe 06Sep2000
 POTCAR:    PAW_PBE Ni 02Aug2007
 POTCAR:    PAW_PBE O 08Apr2002
 POTCAR:    PAW_PBE H 15Jun2001

 POTCAR:    PAW_PBE Fe 06Sep2000
   VRHFIN =Fe:  d7 s1

   TITEL  = PAW_PBE Fe 06Sep2000
   POMASS =   55.847; ZVAL   =    8.000    mass and valenz
   ENMAX  =  267.882; ENMIN  =  200.911 eV

 POTCAR:    PAW_PBE Ni 02Aug2007
   VRHFIN =Ni:

   TITEL  = PAW_PBE Ni 02Aug2007
   POMASS =   58.690; ZVAL   =   10.000    mass and valenz
   ENMAX  =  269.532; ENMIN  =  202.149 eV

 POTCAR:    PAW_PBE O 08Apr2002
   VRHFIN =O: s2p4

   TITEL  = PAW_PBE O 08Apr2002
   POMASS =   16.000; ZVAL   =    6.000    mass and valenz
   ENMAX  =  400.000; ENMIN  =  300.000 eV

 POTCAR:    PAW_PBE H 15Jun2001
   VRHFIN =H: ultrasoft test

   TITEL  = PAW_PBE H 15Jun2001
   POMASS =    1.000; ZVAL   =    1.000    mass and valenz
   ENMAX  =  250.000; ENMIN  =  200.000 eV

 Optimization of the real space projectors (new method)

 maximal supplied QI-value         = 16.25
 optimisation between [QCUT,QGAM] = [ 11.54, 23.24] = [ 37.28,151.24] Ry
 Optimized for a Real-space Cutoff    1.53 Angstroem

   l    n(q)    QCUT    max X(q) W(low)/X(q) W(high)/X(q)  e(spline)
   2     10    11.539    80.901    0.11E-03    0.14E-03    0.21E-06
   2     10    11.539    75.754    0.11E-03    0.14E-03    0.22E-06
   0     11    11.539    58.752    0.52E-04    0.18E-04    0.33E-06
   0     11    11.539    30.679    0.44E-04    0.16E-04    0.30E-06
   1     10    11.539    17.977    0.53E-04    0.29E-04    0.13E-06
   1     10    11.539    13.559    0.44E-04    0.25E-04    0.11E-06
 Optimization of the real space projectors (new method)

[...]

   l    n(q)    QCUT    max X(q) W(low)/X(q) W(high)/X(q)  e(spline)
   0      8    11.635    20.381    0.10E-03    0.33E-03    0.24E-06
   0      8    11.635    15.268    0.11E-03    0.35E-03    0.26E-06
   1      7    11.635     5.964    0.24E-03    0.31E-03    0.30E-06
   1      7    11.635     5.382    0.22E-03    0.25E-03    0.26E-06
 Optimization of the real space projectors (new method)

 maximal supplied QI-value         = 34.20
 optimisation between [QCUT,QGAM] = [ 11.63, 23.26] = [ 37.87,151.49] Ry
 Optimized for a Real-space Cutoff    1.21 Angstroem

   l    n(q)    QCUT    max X(q) W(low)/X(q) W(high)/X(q)  e(spline)
   0      8    11.629    19.460    0.17E-03    0.34E-03    0.21E-06
   0      8    11.629    12.209    0.16E-03    0.33E-03    0.21E-06
   1      8    11.629     4.655    0.18E-03    0.16E-03    0.26E-06
  PAW_PBE Fe 06Sep2000                  :
  PAW_PBE Ni 02Aug2007                  :
  PAW_PBE O 08Apr2002                   :
  PAW_PBE H 15Jun2001                   :

 POSCAR: POSCAR
  positions in direct lattice
  velocities in cartesian coordinates
 exchange correlation table for  LEXCH =        8
   RHO(1)=    0.500       N(1)  =     2000
   RHO(2)=  100.500       N(2)  =     4000

 VTST: version 3.2, (02/03/18)

 CHAIN: initializing optimizer

 OPT: Using VASP Conjugate-Gradient optimizer
 CHAIN: Read ICHAIN            0

 POSCAR: POSCAR
  positions in direct lattice
  velocities in cartesian coordinates

 ion  position               nearest neighbor table
   1  0.002  0.999  0.097-   9 2.45  29 2.50  49 2.51  64 2.51  44 2.53   7 2.53  51 2.54  38 2.55
                             5 2.60
   2  0.002  0.997  0.381-  11 2.43  48 2.47   6 2.49  30 2.50  57 2.51  39 2.51   8 2.51  52 2.53
                            50 2.56
   3  0.499  0.996  0.096-   5 2.47  62 2.50  34 2.52  31 2.52  49 2.53  45 2.55  55 2.55  12 2.56
                            53 2.58
   4  0.504  0.993  0.380-  15 2.40  13 2.44  63 2.46  35 2.50  32 2.51   6 2.53  50 2.55  56 2.56
                            54 2.59
   5  0.743  0.996  0.094-   3 2.47  34 2.47  62 2.52  38 2.53  55 2.54  64 2.58  14 2.58  51 2.59
                             1 2.60
   6  0.755  0.995  0.386-  68 1.80  39 2.44   2 2.49  56 2.52  35 2.52  47 2.53   4 2.53  15 2.54
                            57 2.56  52 2.59
   7  0.249  0.253  0.097-  22 2.43   9 2.44  51 2.49  18 2.52  20 2.53   1 2.53  53 2.54  10 2.55
                            49 2.58
   8  0.252  0.245  0.382-  66 1.79  11 2.46  52 2.47  19 2.48  54 2.51   2 2.51  59 2.53  26 2.53
                            50 2.55  21 2.55
   9  0.089  0.161  0.191-  10 2.41   7 2.44   1 2.45  44 2.47  11 2.51  57 2.51  51 2.52  59 2.53
                            64 2.54  22 2.55  58 2.62  14 2.68
  10  0.330  0.166  0.195-  26 2.41   9 2.41  11 2.46  22 2.48  45 2.48  44 2.49  13 2.54   7 2.55
                            12 2.57  49 2.58  53 2.59  25 2.59
  11  0.165  0.079  0.289-   2 2.43   8 2.46  10 2.46  44 2.48  48 2.49  57 2.50   9 2.51  13 2.52
                            59 2.54  46 2.54  26 2.56  50 2.61
  12  0.583  0.166  0.194-  14 2.45  27 2.50  15 2.51  62 2.52  45 2.54  13 2.55  55 2.55   3 2.56
                            10 2.57  28 2.58  53 2.58  25 2.58
  13  0.415  0.082  0.292-   4 2.44  50 2.50  11 2.52  54 2.52  46 2.54  10 2.54  12 2.55  45 2.55
                            26 2.55  28 2.56  15 2.57  63 2.58
  14  0.827  0.167  0.193-  60 2.45  12 2.45  15 2.48  57 2.51  62 2.51  55 2.51  27 2.53  58 2.56
                            51 2.56   5 2.58  64 2.59   9 2.68
  15  0.669  0.082  0.290-   4 2.40  14 2.48  60 2.50  12 2.51  47 2.52  62 2.53  57 2.54   6 2.54
                            56 2.55  28 2.55  63 2.56  13 2.57
  16  0.003  0.511  0.095-  31 2.44  29 2.45  23 2.48  33 2.51  58 2.57  18 2.58  27 2.59  55 2.60
                            51 2.63
  17  0.005  0.501  0.377-  43 2.38  37 2.42  60 2.44  32 2.52  19 2.54  52 2.55  24 2.55  30 2.55
                            56 2.56
  18  0.256  0.506  0.097-  36 2.40  31 2.45  34 2.47  22 2.47  20 2.48   7 2.52  58 2.53  51 2.58
                            16 2.58
  19  0.250  0.489  0.385-  67 1.87  52 2.41   8 2.48  59 2.51  17 2.54  21 2.54  61 2.56  37 2.58
                            35 2.59  32 2.61
  20  0.500  0.503  0.098-  22 2.41  40 2.43  34 2.48  18 2.48  38 2.50  25 2.53   7 2.53  53 2.54
                            23 2.58
  21  0.504  0.496  0.376-  42 2.38  26 2.40  61 2.43  35 2.53  54 2.54  19 2.54   8 2.55  24 2.55
                            39 2.56
  22  0.339  0.416  0.189-  20 2.41   7 2.43  26 2.46  40 2.46  18 2.47  25 2.48  10 2.48  61 2.51
                            36 2.53  59 2.54   9 2.55  58 2.60
  23  0.757  0.508  0.096-  29 2.40  41 2.46  16 2.48  27 2.48  38 2.48  25 2.56  55 2.57  20 2.58
                            53 2.60
  24  0.753  0.495  0.394-  65 1.89  69 1.95  54 2.54  56 2.55  17 2.55  28 2.55  21 2.55  30 2.61
                            39 2.61  43 2.66  42 2.70
  25  0.586  0.422  0.194-  26 2.43  40 2.45  42 2.45  41 2.46  27 2.46  22 2.48  20 2.53  23 2.56
                            53 2.58  12 2.58  10 2.59  28 2.60
  26  0.416  0.335  0.285-  21 2.40  10 2.41  25 2.43  22 2.46  59 2.48  61 2.49   8 2.53  13 2.55
                            42 2.56  11 2.56  28 2.57  54 2.69
  27  0.827  0.417  0.192-  41 2.45  25 2.46  23 2.48  12 2.50  55 2.51  43 2.53  14 2.53  60 2.53
                            28 2.57  58 2.59  16 2.59  33 2.60
  28  0.670  0.334  0.294-  60 2.51  43 2.51  42 2.52  54 2.52  56 2.54  15 2.55  24 2.55  13 2.56
                            27 2.57  26 2.57  12 2.58  25 2.60
  29  0.992  0.747  0.096-  23 2.40  16 2.45  38 2.48  41 2.50   1 2.50  33 2.54  44 2.56  49 2.57
                            31 2.63
  30  0.009  0.754  0.388-  65 1.85  50 2.45  46 2.47  32 2.49   2 2.50  17 2.55  43 2.59  39 2.59
                            24 2.61  48 2.64
  31  0.251  0.746  0.097-  16 2.44  36 2.44  18 2.45  33 2.49  34 2.52   3 2.52  45 2.55  49 2.56
                            29 2.63
  32  0.253  0.749  0.389-  67 1.87  50 2.48  30 2.49   4 2.51  17 2.52  46 2.52  35 2.56  63 2.60
                            19 2.61  37 2.65
  33  0.086  0.671  0.192-  45 2.48  44 2.48  31 2.49  16 2.51  36 2.52  37 2.52  41 2.52  46 2.53
                            43 2.53  29 2.54  58 2.55  27 2.60
  34  0.502  0.749  0.098-  18 2.47   5 2.47  40 2.48  36 2.48  20 2.48  62 2.49  38 2.49  31 2.52
                             3 2.52
  35  0.506  0.747  0.385-  67 1.87  39 2.46  47 2.49   4 2.50   6 2.52  21 2.53  61 2.56  32 2.56
                            63 2.58  19 2.59
  36  0.330  0.661  0.190-  18 2.40  31 2.44  37 2.47  34 2.48  58 2.49  61 2.51  63 2.51  33 2.52
                            22 2.53  40 2.53  62 2.56  45 2.62
  37  0.170  0.578  0.286-  17 2.42  58 2.44  36 2.47  61 2.47  59 2.49  63 2.50  33 2.52  60 2.55
                            46 2.55  43 2.57  19 2.58  32 2.65
  38  0.748  0.749  0.094-  29 2.48  23 2.48  34 2.49  20 2.50   5 2.53  40 2.54  64 2.55   1 2.55
                            41 2.58
  39  0.752  0.752  0.388-  65 1.84   6 2.44  35 2.46   2 2.51  21 2.56  47 2.56  42 2.57  30 2.59
                            48 2.60  24 2.61
  40  0.580  0.661  0.192-  20 2.43  25 2.45  22 2.46  61 2.47  34 2.48  36 2.53  42 2.54  47 2.54
                            38 2.54  41 2.54  62 2.56  64 2.57
  41  0.832  0.662  0.193-  27 2.45  25 2.46  42 2.46  23 2.46  48 2.49  29 2.50  43 2.51  33 2.52
                            40 2.54  64 2.54  44 2.57  38 2.58
  42  0.673  0.584  0.288-  21 2.38  25 2.45  41 2.46  43 2.49  48 2.50  28 2.52  47 2.53  40 2.54
                            26 2.56  39 2.57  61 2.58  24 2.70
  43  0.918  0.583  0.289-  17 2.38  42 2.49  46 2.50  41 2.51  28 2.51  27 2.53  33 2.53  48 2.54
                            60 2.55  37 2.57  30 2.59  24 2.66
  44  0.086  0.916  0.194-  45 2.43  48 2.46   9 2.47  11 2.48  33 2.48  10 2.49   1 2.53  49 2.53
                            64 2.54  46 2.56  29 2.56  41 2.57
  45  0.327  0.919  0.193-  44 2.43  33 2.48  10 2.48  49 2.49  46 2.53  63 2.54  12 2.54  31 2.55
                            13 2.55   3 2.55  62 2.59  36 2.62
  46  0.167  0.829  0.292-  30 2.47  43 2.50  50 2.52  32 2.52  63 2.52  33 2.53  45 2.53  13 2.54
                            48 2.54  11 2.54  37 2.55  44 2.56
  47  0.665  0.830  0.288-  35 2.49  63 2.51  62 2.51  64 2.52  15 2.52  61 2.52   6 2.53  42 2.53
                            40 2.54  48 2.54  39 2.56  57 2.57
  48  0.918  0.834  0.286-  44 2.46  64 2.47   2 2.47  11 2.49  41 2.49  42 2.50  57 2.52  43 2.54
                            46 2.54  47 2.54  39 2.60  30 2.64
  49  0.249  0.998  0.096-  45 2.49   1 2.51  44 2.53   3 2.53  53 2.55  31 2.56  29 2.57  10 2.58
                             7 2.58
  50  0.254  0.994  0.389-  66 1.87  30 2.45  32 2.48  13 2.50  54 2.51  46 2.52   4 2.55   8 2.55
                             2 2.56  11 2.61
  51  0.001  0.250  0.097-   7 2.49  58 2.51   9 2.52   1 2.54  55 2.55  14 2.56  18 2.58   5 2.59
                            16 2.63
  52  0.011  0.251  0.381-  68 1.87  19 2.41  59 2.46   8 2.47  57 2.50  60 2.53   2 2.53  56 2.54
                            17 2.55   6 2.59
  53  0.499  0.252  0.095-  55 2.53   7 2.54  20 2.54  49 2.55   3 2.58  25 2.58  12 2.58  10 2.59
[...]
   -.197E+02 -.899E+01 0.211E+04   0.198E+02 0.918E+01 -.211E+04   0.515E+00 -.505E+00 -.214E+01   -.157E+00 -.147E+00 0.291E+00
   0.495E+01 -.525E+02 -.181E+04   -.509E+01 0.531E+02 0.180E+04   0.180E+00 -.539E+00 0.337E+01   -.427E-01 -.416E-01 -.184E+00
   -.350E+02 0.617E+01 0.886E+03   0.351E+02 -.631E+01 -.885E+03   -.312E+00 0.546E-01 -.137E+00   0.401E-01 -.102E-01 -.754E-01
   0.192E+02 -.145E+02 0.210E+04   -.193E+02 0.148E+02 -.209E+04   -.258E+00 -.113E+01 -.257E+01   -.113E+00 -.443E-01 0.488E-01
   0.991E+01 -.853E+02 -.181E+04   -.995E+01 0.857E+02 0.180E+04   0.460E-01 -.380E+00 0.228E+01   -.940E-02 -.219E-01 -.612E-01
   -.271E+02 0.116E+02 0.783E+03   0.271E+02 -.119E+02 -.782E+03   -.204E+00 -.336E+00 -.560E+00   -.347E+00 -.176E-01 -.103E+00
   -.640E+02 0.144E+02 -.444E+03   0.645E+02 -.147E+02 0.444E+03   -.317E+00 0.193E+00 0.442E+00   -.152E+00 0.114E+00 -.454E+00
   0.373E+02 -.409E+02 0.815E+03   -.372E+02 0.411E+02 -.815E+03   0.653E+00 -.325E+00 -.183E+00   -.641E-01 0.466E-04 -.823E-01
   0.471E+02 -.332E+02 -.519E+03   -.471E+02 0.331E+02 0.519E+03   0.136E+00 -.756E-02 -.335E-01   -.966E-01 0.310E-01 -.202E+00
   -.690E+01 -.351E+01 0.210E+04   0.672E+01 0.325E+01 -.210E+04   0.578E+00 0.784E+00 -.198E+01   -.424E-02 -.679E-03 -.122E-02
   -.688E+02 -.187E+02 -.184E+04   0.707E+02 0.192E+02 0.184E+04   -.186E+01 -.520E+00 0.244E+01   0.157E-01 -.757E-02 -.530E-01
   0.127E+02 -.738E+01 0.211E+04   -.127E+02 0.723E+01 -.210E+04   -.385E+00 0.613E+00 -.264E+01   0.534E-01 -.579E-01 0.152E-01
   0.853E+02 -.170E+02 -.189E+04   -.872E+02 0.178E+02 0.189E+04   0.189E+01 -.714E+00 0.235E+01   0.137E-01 -.342E-01 -.695E-01
   0.377E+02 -.232E+02 0.808E+03   -.378E+02 0.230E+02 -.807E+03   -.201E+00 -.849E-01 -.377E+00   0.614E-01 -.383E-01 -.787E-01
   0.908E+00 0.923E+01 0.213E+04   -.838E+00 -.878E+01 -.213E+04   -.102E+00 0.360E-01 -.190E+01   0.517E-02 -.164E+00 0.626E-01
   -.952E+02 -.421E+02 -.188E+04   0.972E+02 0.434E+02 0.188E+04   -.198E+01 -.125E+01 0.200E+01   -.159E-01 -.542E-01 -.996E-01
   0.203E+02 -.306E+02 0.874E+03   -.205E+02 0.311E+02 -.873E+03   0.238E+00 0.226E+00 0.221E+00   0.180E+00 -.302E+00 -.727E-01
   0.563E+02 -.785E+02 -.506E+03   -.567E+02 0.789E+02 0.506E+03   0.317E+00 -.388E+00 0.397E+00   0.122E+00 -.853E-01 -.210E+00
   -.833E+01 0.976E+01 0.214E+04   0.852E+01 -.946E+01 -.213E+04   -.153E-01 0.175E+00 -.233E+01   -.538E-01 -.888E-01 0.275E-01
   0.835E+02 -.318E+02 -.184E+04   -.855E+02 0.328E+02 0.184E+04   0.201E+01 -.103E+01 0.252E+01   -.191E-01 -.316E-01 -.749E-01
   -.432E+02 0.546E+01 0.839E+03   0.436E+02 -.503E+01 -.838E+03   0.264E-01 0.238E+00 -.794E-02   -.147E+00 -.361E+00 -.835E-01
   -.175E+02 0.509E+00 0.797E+03   0.177E+02 -.411E+00 -.797E+03   -.150E+00 0.811E+00 -.364E+00   -.990E-01 -.832E-01 -.861E-01
   -.412E+02 -.161E+02 -.519E+03   0.417E+02 0.162E+02 0.519E+03   -.380E+00 0.329E-01 0.336E+00   -.123E+00 -.110E+00 -.272E+00
   0.310E+02 -.538E+02 -.516E+03   -.313E+02 0.540E+02 0.516E+03   0.322E+00 -.213E+00 0.611E+00   -.101E-01 -.348E-01 -.149E+00
   -.186E+02 0.443E+02 0.786E+03   0.185E+02 -.447E+02 -.786E+03   -.153E+00 0.445E-01 -.443E+00   0.333E-02 0.985E-01 -.837E-01
   0.133E+02 0.143E+01 0.796E+03   -.127E+02 -.139E+01 -.795E+03   0.170E+00 -.128E+00 -.164E+00   -.212E-01 0.247E-01 -.857E-01
   0.272E+02 0.247E+02 -.542E+03   -.272E+02 -.249E+02 0.543E+03   -.285E-02 0.176E+00 -.436E+00   0.120E-01 0.121E-01 -.160E+00
   -.394E+02 0.348E+02 -.554E+03   0.395E+02 -.348E+02 0.555E+03   -.903E-01 0.178E+00 -.868E+00   -.208E-01 -.969E-01 -.191E+00
   -.312E+02 0.680E+02 -.515E+03   0.313E+02 -.685E+02 0.516E+03   -.112E+00 0.483E+00 -.271E+00   -.581E-02 0.132E-01 -.169E+00
   0.752E+01 0.322E+02 0.263E+04   -.760E+01 -.323E+02 -.263E+04   0.353E-01 0.155E+00 -.502E+00   -.292E-01 0.124E+00 0.354E-01
   0.947E+01 0.192E+03 -.232E+04   -.921E+01 -.195E+03 0.232E+04   -.262E+00 0.299E+01 0.106E+01   -.335E-02 0.509E-01 -.880E-01
   -.911E+01 0.258E+01 0.266E+04   0.922E+01 -.280E+01 -.266E+04   -.504E+00 0.133E+00 -.121E+01   0.168E+00 0.958E-01 0.808E-01
   -.132E+03 -.779E+02 -.232E+04   0.134E+03 0.793E+02 0.232E+04   -.214E+01 -.142E+01 0.357E+00   0.531E-01 0.513E-01 -.136E+00
   0.106E+02 -.289E+02 0.261E+04   -.106E+02 0.292E+02 -.261E+04   0.199E+00 -.444E+00 -.184E+01   -.172E+00 0.128E+00 0.132E+00
   0.110E+02 -.348E+02 -.222E+04   -.116E+02 0.346E+02 0.222E+04   0.649E+00 0.152E+00 0.257E+01   -.473E-01 0.226E-01 -.111E+00
   0.124E+02 -.196E+02 0.264E+04   -.125E+02 0.195E+02 -.263E+04   0.537E-01 0.334E-01 -.151E+01   -.330E-01 0.364E-01 0.487E-03
   0.302E+02 -.823E+01 -.225E+04   -.296E+02 0.776E+01 0.225E+04   -.620E+00 0.447E+00 0.233E+01   -.351E-02 0.276E-01 -.696E-01
   -.112E+02 0.960E+02 -.593E+03   0.110E+02 -.965E+02 0.592E+03   0.105E+00 0.434E+00 0.689E+00   0.867E-01 0.857E-01 -.226E+00
   0.282E+02 -.429E+02 0.108E+04   -.286E+02 0.428E+02 -.108E+04   -.219E-01 -.242E+00 -.261E+00   0.414E+00 -.183E-02 -.998E-01
   -.696E+02 -.123E+02 -.591E+03   0.695E+02 0.120E+02 0.592E+03   -.731E-01 0.115E+00 -.629E+00   0.236E+00 0.126E+00 -.507E+00
   0.848E+02 -.678E+02 -.572E+03   -.853E+02 0.679E+02 0.572E+03   0.390E+00 -.200E+00 0.561E+00   0.965E-01 0.448E-01 -.203E+00
   -.506E+02 -.272E+02 -.627E+03   0.506E+02 0.277E+02 0.627E+03   -.353E-01 -.184E+00 0.688E+00   0.123E-01 -.277E+00 -.520E+00
   0.285E+02 0.359E+01 0.104E+04   -.285E+02 -.357E+01 -.104E+04   0.156E+00 0.660E-01 -.248E+00   -.457E-02 -.109E+00 -.106E+00
   0.531E+02 -.167E+02 -.630E+03   -.533E+02 0.170E+02 0.630E+03   0.187E+00 -.143E+00 0.493E+00   0.207E-01 -.113E+00 -.218E+00
   -.297E+02 0.554E+02 0.106E+04   0.294E+02 -.555E+02 -.106E+04   -.268E-01 0.270E+00 -.323E-01   0.212E-01 -.831E-02 -.100E+00
   0.475E+01 -.498E+02 -.185E+04   -.478E+01 0.504E+02 0.187E+04   0.233E-01 -.636E+00 -.259E+02   0.482E-02 -.166E-01 0.373E-01
   0.719E+02 -.293E+01 -.192E+04   -.713E+02 0.294E+01 0.195E+04   -.579E+00 -.373E-01 -.278E+02   -.395E-02 0.125E-01 0.692E-02
   -.829E+01 0.337E+01 -.187E+04   0.896E+01 -.416E+01 0.190E+04   -.667E+00 0.798E+00 -.259E+02   0.121E-02 -.164E-01 0.796E-02
   -.486E+02 0.528E+02 -.193E+04   0.497E+02 -.504E+02 0.195E+04   -.114E+01 -.245E+01 -.272E+02   0.775E-02 0.170E-01 0.277E-01
   0.409E+01 -.217E+02 -.186E+04   -.559E+01 0.189E+02 0.184E+04   0.151E+01 0.277E+01 0.198E+02   -.579E-02 0.814E-02 0.311E-01
   -.294E+01 -.134E+01 -.366E+03   0.324E+01 0.128E+01 0.374E+03   -.307E+00 0.432E-01 -.827E+01   -.421E-03 0.509E-03 0.686E-02
   0.183E+01 -.174E+01 0.986E+02   -.582E-13 0.489E-12 0.171E-12   -.195E+01 0.177E+01 -.929E+02   0.122E+00 -.207E-01 -.567E+01

 POSITION                                       TOTAL-FORCE (eV/Angst)
     -5.03208      8.74992      2.05921        -0.227652     -0.010213     -0.065566
     -5.01862      8.73445      8.10474         0.000619     -0.006843     -0.003049
      0.00574      8.72607      2.04466        -0.256386      0.370114      0.008471
      0.07867      8.69219      8.07852         0.003449     -0.002286     -0.019078
      2.47665      8.72592      2.00821         0.324542      0.178108      0.137512
      2.60839      8.71804      8.19789        -0.001865     -0.001619      0.002824
      1.23891      2.21748      2.05880         0.392630     -0.208426     -0.368740
      1.30976      2.14456      8.12892         0.004008     -0.001414     -0.013067
      0.08074      1.41419      4.05321        -0.770540      0.641201      0.199510
      2.49330      1.45451      4.14829         0.430780      0.155970     -0.772150
      1.26821      0.69047      6.14437        -0.002573      0.010741     -0.009757
      5.06166      1.44930      4.13498        -0.534479      0.239039     -0.437882
      3.77740      0.72477      6.20960         0.004353      0.006675      0.004920
      7.51557      1.45812      4.11001         0.612706     -0.131950     -0.431610
      6.34591      0.71429      6.16032        -0.011379     -0.004973      0.000908
     -2.55062      4.47399      2.00995         0.260912     -0.767597      0.255383
     -2.47950      4.38239      8.01123        -0.011023     -0.000578     -0.017104
      0.03014      4.42905      2.07020        -0.363167     -0.611744     -0.267263
      0.05470      4.28159      8.19356        -0.001029     -0.014377     -0.011790
      2.50847      4.40516      2.07435         0.381466     -0.455966     -0.156372
      2.58741      4.34494      7.98714        -0.001471      0.000393     -0.013552
      1.32139      3.64145      4.02771        -0.120434     -0.094198      0.489759
      5.08382      4.44890      2.04815        -0.527675     -0.844827     -0.125296
      5.10773      4.33141      8.38372        -0.000369     -0.018451      0.014190
      3.79377      3.69800      4.13071        -0.612035     -0.691753     -0.328355
      2.52266      2.93250      6.05344         0.000481     -0.005269      0.003311
      6.25293      3.64956      4.08305         0.689892     -0.102057      0.276785
      5.08613      2.92502      6.25091         0.001554     -0.007572      0.017426
      6.25194      6.54167      2.03547         0.383007      0.513820     -0.046637
     -3.71567      6.60341      8.25791        -0.022369     -0.009410      0.009656
     -1.23133      6.52951      2.06361        -0.331643      0.388645     -0.566285
     -1.22321      6.55834      8.26856         0.005351     -0.009162     -0.004919
     -2.52172      5.87475      4.08745        -0.169243     -0.307354      0.132448
      1.28426      6.55944      2.07409        -0.029731      0.312403     -0.422311
      1.33941      6.53549      8.19694         0.000323      0.002321     -0.009080
     -0.00626      5.79145      4.04458         0.212456      0.455296      0.737789
     -1.20630      5.06451      6.07638        -0.001723     -0.002827      0.003804
      3.77628      6.55571      2.00000         0.124179      0.387151     -0.098589
      3.79678      6.58058      8.24292        -0.005618      0.009567     -0.011189
      2.52387      5.78801      4.07310         0.239875      0.302207      0.338821
      5.06734      5.79704      4.10517        -0.068944      0.819357      0.042724
      3.84900      5.11634      6.12277        -0.004437      0.002775      0.006345
      6.33158      5.10059      6.14916        -0.003959      0.005949      0.005397
     -3.76296      8.02446      4.11956        -0.195690     -0.238460     -0.147576
     -1.33707      8.05044      4.10308         0.721651     -0.056496      0.275615
     -2.50274      7.25854      6.20786         0.003319     -0.012550      0.000529
      2.52725      7.27237      6.12523        -0.002744     -0.002856      0.010644
      5.07084      7.30286      6.08962        -0.009739     -0.011064      0.003515
     -2.52690      8.74056      2.03303        -0.077983      0.096319      0.396795
     -2.45838      8.70575      8.26467         0.002720      0.012487      0.004584
     -1.24953      2.18697      2.05404        -0.204115     -0.003646      0.332324
     -1.16214      2.19764      8.11303         0.008465      0.003954     -0.009871
      3.77687      2.20348      2.02824         0.001030      0.035364      0.667949
      3.81023      2.14749      8.28990         0.004377      0.002104      0.003555
      6.31052      2.19548      2.03586        -0.004871      0.023032      0.217244
      6.41296      2.13728      8.27313        -0.011201     -0.004561      0.001063
      8.87978      0.73604      6.08416        -0.004092      0.000336     -0.006463
     -1.27338      3.65234      4.08853        -0.010333     -0.370889     -0.284433
      0.03728      2.90553      6.08419         0.005183     -0.004343      0.010409
      7.58508      2.88345      6.09463         0.003414     -0.007801      0.003753
      1.27080      5.08677      6.08179        -0.008964     -0.003543      0.010246
      1.25660      8.01495      4.09194         0.090060     -0.020442      0.115704
      0.01952      7.24758      6.08870        -0.004888      0.000061      0.001997
      3.80919      8.00883      4.09175        -0.298402      0.118319     -0.102010
      5.08546      5.93390      9.39027         0.006672      0.020279     -0.005851
      2.36738      1.43096      9.38577        -0.001516     -0.008668      0.005646
      0.07952      5.75860      9.34000        -0.003749     -0.011434      0.004110
      7.82796      1.34534      9.34396        -0.001278     -0.008232      0.001254
      5.13889      2.85682      9.66985         0.002209     -0.008462     -0.030621
      5.17534      2.85475     10.64179        -0.002371     -0.029673      0.031548
    total drift:                                0.006198      0.006183     -0.004101

  FREE ENERGIE OF THE ION-ELECTRON SYSTEM (eV)
  free  energy   TOTEN  =      -511.44498537 eV

  energy  without entropy=     -511.45383542  energy(sigma->0) =     -511.44793539

 d Force = 0.4285510E-04[ 0.328E-04, 0.529E-04]  d Energy = 0.2776494E-04 0.151E-04
 d Force =-0.6180276E+00[-0.618E+00,-0.618E+00]  d Ewald  =-0.6180277E+00 0.698E-09

 stress matrix after NEB project (eV)
    -24.60570     -0.12422      0.12111
     -0.12422    -22.28363      0.63853
      0.12111      0.63853     -0.78171
  FORCES: max atom, RMS     0.043375    0.011743
  FORCE total and by dimension    0.098249    0.031548
  Stress total and by dimension   33.218779   24.605696

 reached required accuracy - stopping structural energy minimisation
 writing wavefunctions

 total charge

[...]

 magnetization (x)

# of ion       s       p       d       tot
    1        0.007  -0.005   2.646   2.648
    2       -0.000  -0.004   2.852   2.848
    3        0.004  -0.009   2.792   2.786
    4       -0.000  -0.002   2.894   2.892
    5        0.002  -0.010   2.777   2.769
    6       -0.003  -0.014   2.326   2.309
    7        0.000  -0.005   2.644   2.639
    8        0.001  -0.010   2.214   2.206
    9       -0.001  -0.016   2.379   2.361
   10       -0.005  -0.018   2.257   2.234
   11       -0.010  -0.030   2.330   2.289
   12       -0.009  -0.031   2.511   2.471
   13       -0.013  -0.038   2.620   2.570
   14       -0.002  -0.015   2.697   2.680
   15       -0.009  -0.031   2.581   2.540
   16       -0.000  -0.010   2.754   2.743
   17       -0.003  -0.009   2.869   2.857
   18       -0.002  -0.014   2.583   2.567
   19        0.005   0.000   2.570   2.575
   20       -0.001  -0.008   2.531   2.522
   21       -0.003  -0.013   2.850   2.835
   22       -0.031  -0.057  -0.372  -0.460
   23       -0.004  -0.014   2.664   2.647
   24       -0.006   0.003   2.633   2.630
   25       -0.029  -0.056   0.138   0.053
   26       -0.004  -0.027   2.338   2.307
   27       -0.009  -0.034   2.474   2.431
   28       -0.001  -0.027   2.583   2.555
   29       -0.003  -0.019   2.590   2.567
   30        0.003  -0.010   2.446   2.439
   31       -0.011  -0.021   2.661   2.629
   32        0.006  -0.007   2.515   2.514
   33       -0.014  -0.041   2.258   2.204
   34       -0.012  -0.034   2.583   2.537
   35        0.003  -0.011   2.482   2.474
   36       -0.009  -0.030   2.467   2.428
   37       -0.009  -0.034   2.612   2.569
   38       -0.010  -0.027   2.652   2.615
   39       -0.002  -0.021   2.305   2.281
   40       -0.007  -0.029   2.346   2.310
   41       -0.010  -0.032   2.255   2.213
   42       -0.015  -0.044   2.297   2.237
   43       -0.019  -0.052   2.514   2.443
   44       -0.044  -0.074  -2.079  -2.196
   45       -0.004  -0.032   2.376   2.340
   46       -0.003  -0.028   2.369   2.339
   47        0.000  -0.022   2.557   2.536
   48       -0.009  -0.036   2.351   2.306
   49       -0.030  -0.030   0.600   0.540
   50       -0.025  -0.026   0.578   0.527
   51       -0.031  -0.029   0.713   0.653
   52       -0.017  -0.019   0.583   0.548
   53       -0.026  -0.021   0.674   0.627
   54       -0.019  -0.022   0.697   0.656
   55       -0.030  -0.022   0.745   0.693
   56       -0.017  -0.022   0.635   0.596
   57       -0.029  -0.054   0.775   0.692
   58       -0.022  -0.053   0.664   0.589
   59       -0.014  -0.031   0.596   0.552
   60       -0.025  -0.045   0.752   0.682
   61       -0.029  -0.061   0.730   0.640
   62       -0.028  -0.074   0.742   0.639
   63       -0.032  -0.067   0.809   0.710
   64       -0.023  -0.056   0.696   0.618
   65        0.004   0.092   0.000   0.095
   66        0.002   0.083   0.000   0.086
   67        0.004   0.102   0.000   0.106
   68        0.003   0.090   0.000   0.093
   69        0.011   0.114   0.000   0.125
   70        0.003   0.002   0.000   0.005
tot         -0.663  -1.259 122.682 120.760