 vasp.5.4.4.18Apr17-6-g9f103f2a35 (build Sep 06 2021 19:49:22) complex

 executed on             LinuxIFC date 2021.12.29  15:27:32

 INCAR:
 POTCAR:    PAW_PBE Ni 02Aug2007
 POTCAR:    PAW_PBE Fe 06Sep2000
 POTCAR:    PAW_PBE Ni 02Aug2007
   VRHFIN =Ni:

   TITEL  = PAW_PBE Ni 02Aug2007
   POMASS =   58.690; ZVAL   =   10.000    mass and valenz
   ENMAX  =  269.532; ENMIN  =  202.149 eV

 POTCAR:    PAW_PBE Fe 06Sep2000
   VRHFIN =Fe:  d7 s1

   TITEL  = PAW_PBE Fe 06Sep2000
   POMASS =   55.847; ZVAL   =    8.000    mass and valenz
   ENMAX  =  267.882; ENMIN  =  200.911 eV

 Optimization of the real space projectors (new method)

 maximal supplied QI-value         = 16.25
 optimisation between [QCUT,QGAM] = [ 11.54, 23.24] = [ 37.28,151.24] Ry
 Optimized for a Real-space Cutoff    1.45 Angstroem

   l    n(q)    QCUT    max X(q) W(low)/X(q) W(high)/X(q)  e(spline)
   2      9    11.539    60.317    0.19E-03    0.47E-04    0.16E-06
   2      9    11.539    55.921    0.19E-03    0.48E-04    0.16E-06
   0     10    11.539    51.690    0.80E-04    0.50E-04    0.24E-06
   0     10    11.539    30.015    0.73E-04    0.45E-04    0.22E-06
   1     10    11.539    18.849    0.87E-04    0.16E-03    0.71E-07
   1     10    11.539    14.624    0.73E-04    0.13E-03    0.64E-07
 Optimization of the real space projectors (new method)

 maximal supplied QI-value         = 16.25
 optimisation between [QCUT,QGAM] = [ 11.54, 23.24] = [ 37.28,151.24] Ry
 Optimized for a Real-space Cutoff    1.53 Angstroem

   l    n(q)    QCUT    max X(q) W(low)/X(q) W(high)/X(q)  e(spline)
   2     10    11.539    80.901    0.11E-03    0.14E-03    0.21E-06
   2     10    11.539    75.754    0.11E-03    0.14E-03    0.22E-06
   0     11    11.539    58.752    0.52E-04    0.18E-04    0.33E-06
   0     11    11.539    30.679    0.44E-04    0.16E-04    0.30E-06
   1     10    11.539    17.977    0.53E-04    0.29E-04    0.13E-06
   1     10    11.539    13.559    0.44E-04    0.25E-04    0.11E-06
  PAW_PBE Ni 02Aug2007                  :
  PAW_PBE Fe 06Sep2000                  :

 POSCAR: POSCAR
  positions in direct lattice
  velocities in cartesian coordinates
 exchange correlation table for  LEXCH =        8
   RHO(1)=    0.500       N(1)  =     2000
   RHO(2)=  100.500       N(2)  =     4000

 ion  position               nearest neighbor table
   1  0.999  0.999  0.496-  18 2.53  25 2.55  10 2.55   7 2.55  11 2.55   5 2.55  31 2.56  20 2.57
                             2 2.57   3 2.58  12 2.59  16 2.60
   2  0.001  0.251  0.753-   8 2.55   3 2.55  17 2.55   4 2.55  19 2.56  13 2.56   1 2.57   7 2.58
                             9 2.58  26 2.60  16 2.61  12 2.61
   3  0.255  0.001  0.752-  14 2.51  21 2.53  27 2.53  15 2.53  19 2.54  20 2.55   2 2.55  24 2.56
                            12 2.56   5 2.56   1 2.58   9 2.60
   4  0.000  0.501  0.499-   5 2.53  30 2.55   6 2.55   2 2.55   7 2.55  18 2.56  20 2.57  12 2.58
                            31 2.58  10 2.58  13 2.60  26 2.61
   5  1.000  0.749  0.752-  17 2.53  27 2.53   4 2.53  16 2.55   1 2.55  32 2.56  26 2.56   3 2.56
                             9 2.57  13 2.58  20 2.59  31 2.60
   6  0.253  0.502  0.248-  27 2.50  19 2.50  17 2.50  22 2.51  12 2.52  20 2.52  23 2.53  29 2.54
                            10 2.54  28 2.54   4 2.55  18 2.57
   7  0.746  0.250  0.498-  15 2.51  22 2.52  23 2.55  14 2.55   1 2.55   4 2.55  30 2.56  25 2.56
                            26 2.58  16 2.58   2 2.58  10 2.61
   8  0.746  0.250  0.002-  28 2.51  10 2.51  21 2.52  25 2.52  15 2.52  26 2.53  30 2.53  22 2.54
                             2 2.55  16 2.56   9 2.56  17 2.56
   9  1.000  0.997  0.011-  18 2.41  10 2.43  25 2.47  11 2.48  27 2.51  32 2.53   8 2.56   5 2.57
                            19 2.57   2 2.58   3 2.60  16 2.61
  10  0.005  0.248  0.241-   9 2.43  19 2.46  17 2.48   8 2.51  11 2.52   6 2.54   1 2.55  12 2.57
                            25 2.58   4 2.58  30 2.60   7 2.61
  11  0.254  0.999  0.246-  22 2.46  21 2.47   9 2.48  19 2.49  14 2.49  27 2.49  29 2.49  10 2.52
                            12 2.53  20 2.54   1 2.55  18 2.56
  12  0.259  0.250  0.495-  22 2.42  14 2.50  23 2.50  15 2.51   6 2.52  11 2.53   3 2.56  13 2.57
                            10 2.57   4 2.58   1 2.59   2 2.61
  13  0.259  0.499  0.754-  28 2.44  15 2.45  23 2.47  24 2.48  19 2.53  27 2.53   2 2.56  20 2.56
                            12 2.57  17 2.57   5 2.58   4 2.60
  14  0.496  0.994  0.496-  20 2.44  29 2.46  31 2.47  11 2.49  12 2.50  22 2.51   3 2.51  25 2.53
                            16 2.53  24 2.55   7 2.55  15 2.60
  15  0.501  0.256  0.749-  13 2.45  26 2.46  28 2.49  23 2.49  12 2.51   7 2.51   8 2.52   3 2.53
                            19 2.54  16 2.54  14 2.60  21 2.61
  16  0.741  0.995  0.752-  24 2.47  21 2.49  32 2.51  31 2.53  14 2.53  15 2.54   5 2.55   8 2.56
                             7 2.58   1 2.60   2 2.61   9 2.61
  17  0.001  0.503  0.006-  18 2.46  10 2.48  30 2.50   6 2.50  27 2.51   5 2.53  32 2.54   2 2.55
                             8 2.56  19 2.56  13 2.57  26 2.59
  18  0.996  0.752  0.242-   9 2.41  17 2.46  32 2.47  25 2.49  30 2.50  27 2.50   1 2.53  11 2.56
                             4 2.56   6 2.57  31 2.57  20 2.63
  19  0.255  0.250  0.005-  22 2.45  10 2.46  11 2.49   6 2.50  21 2.53  13 2.53  28 2.53  15 2.54
                             3 2.54   2 2.56  17 2.56   9 2.57
  20  0.259  0.750  0.499-  14 2.44  23 2.44  29 2.49  24 2.51   6 2.52  11 2.54   3 2.55  13 2.56
                             1 2.57   4 2.57   5 2.59  18 2.63
  21  0.502  0.997  0.005-  25 2.45  29 2.46  11 2.47  32 2.48  16 2.49  22 2.50  27 2.52   8 2.52
                            19 2.53   3 2.53  24 2.57  15 2.61
  22  0.493  0.246  0.251-  12 2.42  19 2.45  11 2.46  21 2.50   6 2.51  14 2.51   7 2.52   8 2.54
                            25 2.54  23 2.60  30 2.60  28 2.60
  23  0.497  0.505  0.505-  20 2.44  24 2.44  13 2.47  31 2.47  26 2.48  15 2.49  12 2.50   6 2.53
                             7 2.55  29 2.55  30 2.57  22 2.60
  24  0.504  0.744  0.750-  26 2.41  23 2.44  28 2.45  16 2.47  13 2.48  31 2.48  32 2.51  20 2.51
                            14 2.55   3 2.56  27 2.56  21 2.57
  25  0.746  0.995  0.246-  29 2.45  21 2.45  32 2.46   9 2.47  18 2.49  31 2.50   8 2.52  14 2.53
                            22 2.54   1 2.55   7 2.56  10 2.58
  26  0.740  0.503  0.754-  24 2.41  28 2.41  15 2.46  23 2.48  32 2.51   8 2.53   5 2.56  31 2.56
                             7 2.58  17 2.59   2 2.60   4 2.61
  27  0.250  0.751  0.002-  11 2.49  18 2.50   6 2.50   9 2.51  17 2.51  21 2.52  28 2.53  13 2.53
                             3 2.53  29 2.53   5 2.53  24 2.56
  28  0.502  0.503  0.994-  26 2.41  13 2.44  24 2.45  32 2.48  15 2.49   8 2.51  30 2.53  19 2.53
                            27 2.53   6 2.54  29 2.57  22 2.60
  29  0.503  0.755  0.250-  31 2.45  25 2.45  14 2.46  21 2.46  32 2.47  20 2.49  11 2.49  30 2.50
                            27 2.53   6 2.54  23 2.55  28 2.57
  30  0.748  0.506  0.247-  32 2.47  18 2.50  31 2.50  29 2.50  17 2.50  28 2.53   8 2.53   4 2.55
                             7 2.56  23 2.57  22 2.60  10 2.60
  31  0.741  0.751  0.496-  29 2.45  14 2.47  23 2.47  24 2.48  30 2.50  25 2.50  16 2.53  26 2.56
                             1 2.56  18 2.57   4 2.58   5 2.60
  32  0.746  0.750  0.004-  25 2.46  30 2.47  18 2.47  29 2.47  28 2.48  21 2.48  24 2.51  16 2.51
                            26 2.51   9 2.53  17 2.54   5 2.56

IMPORTANT INFORMATION: All symmetrisations will be switched off!
NOSYMM: (Re-)initialisation of all symmetry stuff for point group C_1.

Automatic generation of k-mesh.
 generate k-points for:    3    3    3
Space group operators:
 irot       det(A)        alpha          n_x          n_y          n_z        tau_x        tau_y        tau_z
    1     1.000000     0.000000     1.000000     0.000000     0.000000     0.000000     0.000000     0.000000

 Subroutine IBZKPT returns following result:

 Found     14 irreducible k-points:

 Following reciprocal coordinates:
            Coordinates               Weight
  0.000000  0.000000  0.000000      1.000000
  0.333333  0.000000  0.000000      2.000000
  0.000000  0.333333  0.000000      2.000000
  0.333333  0.333333  0.000000      2.000000
 -0.333333  0.333333  0.000000      2.000000
  0.000000  0.000000  0.333333      2.000000
  0.333333  0.000000  0.333333      2.000000
 -0.333333  0.000000  0.333333      2.000000
  0.000000  0.333333  0.333333      2.000000
  0.333333  0.333333  0.333333      2.000000
 -0.333333  0.333333  0.333333      2.000000
  0.000000 -0.333333  0.333333      2.000000
  0.333333 -0.333333  0.333333      2.000000
 -0.333333 -0.333333  0.333333      2.000000

 Following cartesian coordinates:
            Coordinates               Weight
  0.000000  0.000000  0.000000      1.000000
  0.166667  0.000000  0.000000      2.000000
  0.000000  0.166667  0.000000      2.000000
  0.166667  0.166667  0.000000      2.000000
 -0.166667  0.166667  0.000000      2.000000
  0.000000  0.000000  0.166667      2.000000
  0.166667  0.000000  0.166667      2.000000
 -0.166667  0.000000  0.166667      2.000000
  0.000000  0.166667  0.166667      2.000000
  0.166667  0.166667  0.166667      2.000000
 -0.166667  0.166667  0.166667      2.000000
  0.000000 -0.166667  0.166667      2.000000
  0.166667 -0.166667  0.166667      2.000000
 -0.166667 -0.166667  0.166667      2.000000

 SYSTEM =  SQS-NiFe
 POSCAR =  POSCAR

 Startparameter for this run:
   NWRITE =      2    write-flag & timer
   PREC   = accura    normal or accurate (medium, high low for compatibility)
   ISTART =      0    job   : 0-new  1-cont  2-samecut
   ICHARG =      2    charge: 1-file 2-atom 10-const
   ISPIN  =      2    spin polarized calculation?
   LNONCOLLINEAR =      F non collinear calculations
   LSORBIT =      F    spin-orbit coupling
   INIWAV =      1    electr: 0-lowe 1-rand  2-diag
   LASPH  =      F    aspherical Exc in radial PAW
   METAGGA=      F    non-selfconsistent MetaGGA calc.

 Electronic Relaxation 1
   ENCUT  =  520.0 eV  38.22 Ry    6.18 a.u.  13.29 13.29 13.29*2*pi/ulx,y,z
   ENINI  =  520.0     initial cutoff
   ENAUG  =  544.6 eV  augmentation charge cutoff
   NELM   =    200;   NELMIN=  2; NELMDL= -5     # of ELM steps
   EDIFF  = 0.1E-04   stopping-criterion for ELM
   LREAL  =      T    real-space projection
   NLSPLINE    = F    spline interpolate recip. space projectors
   LCOMPAT=      F    compatible to vasp.4.4
   GGA_COMPAT  = T    GGA compatible to vasp.4.4-vasp.4.6
   LMAXPAW     = -100 max onsite density
   LMAXMIX     =    2 max onsite mixed and CHGCAR
   VOSKOWN=      0    Vosko Wilk Nusair interpolation
   ROPT   =   -0.00025  -0.00025
 Ionic relaxation
   EDIFFG = -.2E-01   stopping-criterion for IOM
   NSW    =     99    number of steps for IOM
   NBLOCK =      1;   KBLOCK =     99    inner block; outer block
   IBRION =      2    ionic relax: 0-MD 1-quasi-New 2-CG
   NFREE  =      1    steps in history (QN), initial steepest desc. (CG)
   ISIF   =      2    stress and relaxation
[...]
 d Force = 0.1131407E+01[ 0.109E+01, 0.118E+01]  d Ewald  = 0.1131407E+01 0.199E-06

[...]

 d Force = 0.1060629E-02[-0.336E-03, 0.246E-02]  d Energy =-0.4833259E-04 0.111E-02
 d Force = 0.1167286E+01[ 0.111E+01, 0.122E+01]  d Ewald  = 0.1167289E+01-0.239E-05

[...]

 real space projection operators:
  max/ min on nodes  :       3538.55       3093.61

[...]

 eigenvalue-minimisations  : 11424
 total energy-change (2. order) : 0.1156411E-02  (-0.5427658E-04)
 number of electron     271.9999931 magnetization      53.8069842
 augmentation part      148.8343016 magnetization      44.5272584

 Broyden mixing:
  rms(total) = 0.26361E-01    rms(broyden)= 0.26359E-01
  rms(prec ) = 0.38570E-01
  weight for this iteration     100.00

 eigenvalues of (default mixing * dielectric matrix)
  average eigenvalue GAMMA=   0.2772
  0.6660  0.4653  0.1345  0.0554  0.0648

[...]

--------------------------------------- Iteration     15(   7)  ---------------------------------------

 eigenvalue-minimisations  :  8333
 total energy-change (2. order) :-0.1528988E-05  (-0.2761881E-05)
 number of electron     271.9999931 magnetization      53.8069842
 augmentation part      148.8343016 magnetization      44.5272584

 Free energy of the ion-electron system (eV)
  alpha Z        PSCENC =      1846.49885247
  Ewald energy   TEWEN  =    -21359.62396939
  -Hartree energ DENC   =     -4357.65451629
  -exchange      EXHF   =         0.00000000
  -V(xc)+E(xc)   XCENC  =       347.07710645
  PAW double counting   =     26189.10044691   -26954.89525639
  entropy T*S    EENTRO =         0.02902385
  eigenvalues    EBANDS =      1166.30538921
  atomic energy  EATOM  =     22884.87169210
  Solvation  Ediel_sol  =         0.00000000
  free energy    TOTEN  =      -238.29123108 eV

  energy without entropy =     -238.32025493  energy(sigma->0) =     -238.30090570

 average (electrostatic) potential at core
  the test charge radii are     0.9791  1.0103
  (the norm of the test charge is              1.0000)
       1 -84.7905       2 -84.7238       3 -84.7646       4 -84.7755       5 -84.7547
       6 -84.7838       7 -84.7988       8 -84.7561       9 -42.6649      10 -42.6394
      11 -42.6356      12 -42.7221      13 -42.6758      14 -42.6454      15 -42.6003
      16 -42.7164      17 -42.6609      18 -42.6028      19 -42.6569      20 -42.7367
      21 -42.6688      22 -42.5901      23 -42.6628      24 -42.6651      25 -42.6637
      26 -42.7185      27 -42.6428      28 -42.6693      29 -42.6604      30 -42.6835
      31 -42.6777      32 -42.6421

 E-fermi :   6.6211     XC(G=0): -13.0565     alpha+bet :-14.0976

[...]

 spin component 2

[...]

 k-point    14 :      -0.3333   -0.3333    0.3333
  band No.  band energies     occupation
      1      -0.8353      1.00000
      2       0.0713      1.00000
      3       0.1243      1.00000
      4       0.2211      1.00000
      5       0.9263      1.00000
      6       0.9996      1.00000
      7       1.0845      1.00000
      8       1.6433      1.00000
      9       2.7217      1.00000
     10       2.7643      1.00000
     11       2.8063      1.00000
     12       3.0727      1.00000
     13       3.0986      1.00000
     14       3.1139      1.00000
     15       3.1380      1.00000
     16       3.1489      1.00000
     17       3.1873      1.00000
     18       3.2291      1.00000
     19       3.2464      1.00000
     20       3.2655      1.00000
     21       3.2820      1.00000
     22       3.2977      1.00000
     23       3.3264      1.00000
     24       3.5456      1.00000
     25       3.6003      1.00000
     26       3.6146      1.00000
     27       3.6418      1.00000
     28       3.6974      1.00000
     29       3.7225      1.00000
     30       3.7485      1.00000
     31       3.7647      1.00000
     32       3.8033      1.00000
     33       3.8337      1.00000
     34       3.8438      1.00000
     35       3.9167      1.00000
     36       3.9704      1.00000
     37       4.0116      1.00000
     38       4.0465      1.00000
     39       4.0759      1.00000
     40       4.1037      1.00000
     41       4.1376      1.00000
     42       4.1822      1.00000
     43       4.2316      1.00000
     44       4.2537      1.00000
     45       4.2912      1.00000
     46       4.3381      1.00000
     47       4.3739      1.00000
     48       4.4197      1.00000
     49       4.4445      1.00000
     50       4.4771      1.00000
     51       4.5397      1.00000
     52       4.5527      1.00000
     53       4.5910      1.00000
     54       4.7209      1.00000
     55       4.7803      1.00000
     56       4.8381      1.00000
     57       4.8772      1.00000
     58       4.9045      1.00000
     59       4.9229      1.00000
     60       4.9899      1.00000
[...]
    190      11.8923     -0.00000
    191      11.9540     -0.00000
    192      12.0068     -0.00000
    193      13.9852      0.00000
    194      14.1477      0.00000
    195      14.3998      0.00000
    196      14.7578      0.00000
    197      14.7785      0.00000
    198      14.8012      0.00000
    199      15.4566      0.00000
    200      15.5503      0.00000
    201      15.5894      0.00000
    202      15.7184      0.00000
    203      15.7551      0.00000
    204      15.8089      0.00000

[...]

 soft charge-density along one line, spin component           2
         0         1         2         3         4         5         6         7         8         9
 total charge-density along one line

------------------------ aborting loop because EDIFF is reached ----------------------------------------

[...]

  FORCE on cell =-STRESS in cart. coord.  units (eV):
  Direction    XX          YY          ZZ          XY          YZ          ZX
  Alpha Z  1846.49885  1846.49885  1846.49885
  Ewald   -7175.43523 -7067.74466 -7116.53242     2.18733     0.65674     0.28087
  Hartree  1400.31209  1503.04709  1454.22562     1.80208     1.58288     0.43834
  E(xc)   -1391.05598 -1391.02269 -1390.75413    -0.00591    -0.02914    -0.04030
  Local    1292.82971  1084.36757  1184.15249    -3.68837    -2.85044    -0.72402
  n-local  -682.50836  -682.74675  -681.62141    -0.27961    -0.28867    -0.19591
  augment  2337.60049  2336.08108  2334.59361    -0.13392     0.49397    -0.00349
  Kinetic  2368.41808  2367.10355  2364.34055     0.02475     0.64991     0.15713
  Fock        0.00000     0.00000     0.00000     0.00000     0.00000     0.00000
  Total      -3.34034    -4.41596    -5.09683    -0.09365     0.21525    -0.08738
  in kB     -14.64142   -19.35610   -22.34050    -0.41049     0.94347    -0.38301

 VOLUME and BASIS-vectors are now :
  energy-cutoff  :      520.00
  volume of cell :      365.53
      direct lattice vectors                 reciprocal lattice vectors
     7.150000000  0.000000000  0.000000000     0.139860140  0.000000000  0.000000000
     0.000000000  7.150000000  0.000000000     0.000000000  0.139860140  0.000000000
     0.000000000  0.000000000  7.150000000     0.000000000  0.000000000  0.139860140

  length of vectors
     7.150000000  7.150000000  7.150000000     0.139860140  0.139860140  0.139860140

 FORCES acting on ions
    electron-ion (+dipol)            ewald-force                    non-local-force                 convergence-correction
   -.160E+01 0.423E+02 0.752E+02   0.163E+01 -.426E+02 -.754E+02   -.355E-01 0.849E-01 0.357E+00   0.144E-02 0.170E+00 -.225E+00
   -.249E+02 -.225E+02 -.676E+02   0.250E+02 0.226E+02 0.680E+02   -.799E-01 -.949E-01 -.328E+00   0.788E-02 0.609E-02 0.183E-01
   -.957E+02 0.372E+01 -.458E+02   0.964E+02 -.396E+01 0.459E+02   -.367E+00 0.144E-02 -.178E+00   -.271E+00 0.248E+00 0.966E-02
   -.208E+01 -.450E+02 0.350E+02   0.206E+01 0.452E+02 -.349E+02   0.221E-01 -.193E-01 0.211E+00   -.272E-02 -.193E+00 -.234E+00
   0.259E+02 0.256E+02 -.813E+02   -.260E+02 -.257E+02 0.819E+02   0.620E-01 0.509E-01 -.516E+00   0.166E-01 0.117E-01 -.279E-01
   -.615E+02 -.151E+02 0.470E+02   0.618E+02 0.152E+02 -.472E+02   -.126E+00 -.243E-01 0.197E+00   -.155E+00 -.128E+00 0.307E-01
   0.120E+03 -.317E+01 0.306E+02   -.120E+03 0.312E+01 -.305E+02   0.374E+00 0.359E-01 0.160E+00   0.155E+00 0.461E-02 -.206E+00
   0.773E+02 -.365E+01 -.324E+02   -.778E+02 0.363E+01 0.324E+02   0.254E+00 -.198E-02 -.189E+00   0.167E+00 0.306E-01 0.207E+00
   0.177E+01 0.438E+02 -.680E+02   -.175E+01 -.441E+02 0.684E+02   -.411E-01 0.188E+00 -.531E+00   0.659E-02 0.880E-01 0.173E+00
   -.139E+02 0.162E+02 0.568E+02   0.139E+02 -.163E+02 -.572E+02   0.148E-01 0.465E-01 0.371E+00   0.133E-01 0.153E-01 -.478E-01
   -.541E+02 0.975E+01 0.426E+02   0.544E+02 -.990E+01 -.429E+02   -.242E+00 0.611E-01 0.256E+00   -.136E+00 0.910E-01 0.334E-01
   -.104E+03 -.128E+01 0.250E+02   0.105E+03 0.131E+01 -.249E+02   -.555E+00 -.343E-01 0.160E+00   -.122E+00 0.220E-02 -.187E+00
   -.890E+02 -.229E+01 -.418E+02   0.897E+02 0.238E+01 0.422E+02   -.490E+00 0.911E-01 -.361E+00   -.171E+00 -.194E+00 -.152E-01
   0.486E+01 0.146E+02 0.371E+02   -.488E+01 -.147E+02 -.370E+02   0.955E-02 -.381E-01 0.187E+00   -.458E-02 0.239E+00 -.270E+00
   0.157E+02 -.294E+02 -.188E+02   -.160E+02 0.295E+02 0.189E+02   0.273E+00 -.127E+00 -.984E-01   -.106E-01 0.127E-01 0.673E-01
   0.820E+02 0.466E+02 -.445E+02   -.827E+02 -.472E+02 0.448E+02   0.555E+00 0.329E+00 -.227E+00   0.204E+00 0.202E+00 -.233E-01
   0.411E+00 -.469E+02 -.254E+02   -.424E+00 0.471E+02 0.254E+02   0.694E-02 -.125E+00 -.199E+00   -.191E-02 -.109E+00 0.184E+00
   0.213E+02 -.191E+02 0.647E+02   -.215E+02 0.193E+02 -.653E+02   0.176E+00 -.211E+00 0.572E+00   0.121E-02 0.227E-02 -.620E-02
   -.633E+02 -.183E+01 -.235E+02   0.637E+02 0.183E+01 0.234E+02   -.316E+00 -.185E-01 -.650E-01   -.139E+00 0.866E-02 0.145E+00
   -.772E+02 0.791E+01 0.343E+02   0.777E+02 -.789E+01 -.342E+02   -.320E+00 -.572E-01 0.147E+00   -.181E+00 0.217E-01 -.256E+00
   -.784E+01 0.164E+02 -.395E+02   0.786E+01 -.166E+02 0.393E+02   -.427E-01 0.253E-01 -.164E+00   0.187E-01 0.186E+00 0.274E+00
   0.255E+02 0.181E+02 0.186E+02   -.256E+02 -.183E+02 -.187E+02   0.132E+00 0.196E+00 0.716E-01   -.217E-02 -.317E-01 -.308E-01
   0.208E+01 -.148E+02 -.128E+02   -.204E+01 0.150E+02 0.132E+02   -.606E-01 0.213E-01 -.159E+00   0.132E-01 -.224E+00 -.292E+00
   -.306E+02 0.340E+02 -.230E+02   0.307E+02 -.341E+02 0.232E+02   -.152E+00 0.171E+00 -.177E+00   -.339E-02 -.204E-01 -.204E-01
   0.569E+02 0.538E+02 0.489E+02   -.572E+02 -.542E+02 -.491E+02   0.209E+00 0.353E+00 0.170E+00   0.919E-01 0.976E-01 0.312E-02
   0.966E+02 -.463E+02 -.483E+02   -.972E+02 0.469E+02 0.485E+02   0.427E+00 -.369E+00 -.167E+00   0.181E+00 -.198E+00 -.258E-01
   -.318E+02 0.374E+01 -.322E+02   0.320E+02 -.378E+01 0.321E+02   -.640E-01 0.448E-01 -.161E+00   -.159E+00 0.130E-02 0.267E+00
   -.105E+02 -.153E+02 0.182E+02   0.105E+02 0.156E+02 -.185E+02   -.281E-03 -.874E-01 0.861E-01   -.169E-02 -.176E+00 0.285E+00
   -.271E+02 -.224E+02 0.227E+02   0.272E+02 0.225E+02 -.228E+02   -.109E+00 -.129E+00 0.157E+00   0.172E-01 0.301E-01 -.335E-01
   0.515E+02 -.559E+02 0.455E+02   -.519E+02 0.564E+02 -.458E+02   0.236E+00 -.380E+00 0.225E+00   0.108E+00 -.113E+00 0.264E-01
   0.768E+02 0.432E+01 0.328E+02   -.775E+02 -.434E+01 -.328E+02   0.455E+00 0.100E-01 0.249E+00   0.166E+00 0.492E-02 -.242E+00
   0.367E+02 0.377E+01 -.298E+02   -.369E+02 -.377E+01 0.297E+02   0.704E-01 0.864E-02 -.183E+00   0.154E+00 -.135E-01 0.266E+00
   -.234E+00 -.754E-01 0.274E+00   -.107E-12 0.256E-12 -.313E-12   0.276E+00 0.556E-03 -.125E+00   -.394E-01 0.743E-01 -.152E+00

 POSITION                                       TOTAL-FORCE (eV/Angst)
      7.14178      0.00039      3.58102        -0.006394      0.008993     -0.001547
      0.01694      1.80028      5.35542        -0.002769     -0.002536      0.006646
      1.78494     -0.00035      5.36038        -0.001392      0.006953      0.001873
     -0.00068      3.57172      3.56458         0.002023     -0.000593      0.006640
      7.13493      5.37005      5.32730         0.000406     -0.008781      0.002507
      1.78866      3.56825      1.81205        -0.003569      0.006638      0.002684
      5.40579      1.78974      3.57696         0.002139     -0.009434     -0.001245
      5.39643      1.78689     -0.00776         0.009013      0.000347     -0.001111
      7.14201      0.00630     -0.03402        -0.007977     -0.000608      0.001292
      0.03504      1.77183      1.79336        -0.002633     -0.002229     -0.014005
      1.76434      7.13097      1.80663        -0.006928      0.002613     -0.004474
      1.73581      1.77929      3.56795        -0.001958     -0.001164      0.004004
      1.76531      3.60473      5.33017        -0.004458     -0.005888     -0.003841
      3.59620      0.00788      3.59761        -0.007715      0.013563      0.006979
      3.56240      1.79883      5.36934         0.000058     -0.013460      0.013427
      5.37213      0.02397      5.34104         0.010263      0.002717     -0.001642
     -0.00470      3.55395      0.00580        -0.007872      0.012563     -0.007714
     -0.00498      5.33892      1.80692        -0.004696      0.002214      0.004352
      1.75161      1.79015      0.01452        -0.003702     -0.009008     -0.003603
      1.78247      5.39338      3.58649         0.000258     -0.010933      0.005853
      3.56627      7.13179     -0.01860         0.000193     -0.000391     -0.003182
      3.60307      1.75642      1.78612        -0.011579     -0.003533     -0.009564
      3.58192      3.57671      3.56384        -0.003874     -0.004435     -0.009714
      3.54953      5.38679      5.34453         0.004110     -0.003437      0.000496
      5.41315      0.01448      1.81103         0.006076      0.006267      0.004040
      5.40000      3.57256      5.33245         0.013261      0.001316     -0.000851
      1.78570      5.36098     -0.00758         0.000142      0.003595      0.001987
      3.55376      3.59738      0.03018         0.006622      0.004102      0.008902
      3.55888      5.36046      1.81226         0.000963      0.009036     -0.013925
      5.37885      3.52891      1.80942         0.006357      0.007323      0.004125
      5.34708      5.36587      3.58067         0.006369     -0.001692      0.008493
      5.34537      5.36048     -0.00010         0.009263     -0.010117     -0.007881
    total drift:                                0.003443     -0.000572     -0.002927

  FREE ENERGIE OF THE ION-ELECTRON SYSTEM (eV)
  free  energy   TOTEN  =      -238.29123108 eV

  energy  without entropy=     -238.32025493  energy(sigma->0) =     -238.30090570

 d Force = 0.7346784E-03[ 0.206E-03, 0.126E-02]  d Energy = 0.1032451E-02-0.298E-03
 d Force =-0.1326457E+01[-0.137E+01,-0.129E+01]  d Ewald  =-0.1326456E+01-0.716E-06

 Conjugate gradient step on ions:
 trial-energy change:   -0.001032  1 .order   -0.000735   -0.001263   -0.000206
  (g-gl).g = 0.338E-03      g.g   = 0.696E-03  gl.gl    = 0.136E-02
 g(Force)  = 0.696E-03   g(Stress)= 0.000E+00 ortho     =-0.107E-03
 gamma     =   0.24912
 trial     =   1.88857
 opt step  =   2.01956  (harmonic =   2.25619) maximal distance =0.00372809
 next E    =  -238.291238   (d E  =  -0.00104)

 reached required accuracy - stopping structural energy minimisation

 total charge

[...]

 magnetization (x)

# of ion       s       p       d       tot
    1       -0.024  -0.043   0.627   0.560
    2       -0.025  -0.051   0.741   0.665
    3       -0.025  -0.044   0.647   0.578
    4       -0.025  -0.043   0.619   0.551
    5       -0.024  -0.061   0.706   0.621
    6       -0.024  -0.046   0.592   0.522
    7       -0.025  -0.047   0.645   0.573
    8       -0.028  -0.055   0.630   0.548
    9       -0.006  -0.026   2.467   2.435
   10       -0.025  -0.054  -0.172  -0.251
   11       -0.011  -0.031   2.258   2.216
   12       -0.004  -0.023   2.451   2.424
   13       -0.010  -0.027   2.437   2.400
   14       -0.008  -0.030   2.295   2.257
   15       -0.007  -0.042   2.559   2.509
   16       -0.006  -0.019   2.495   2.470
   17       -0.006  -0.026   2.446   2.414
   18       -0.012  -0.038   2.540   2.490
   19       -0.008  -0.028   2.408   2.372
   20       -0.000  -0.016   2.370   2.353
   21       -0.005  -0.028   2.367   2.334
   22       -0.011  -0.035   2.546   2.500
   23       -0.007  -0.030   2.343   2.305
   24       -0.033  -0.065  -0.118  -0.216
   25       -0.005  -0.023   2.370   2.341
   26       -0.004  -0.022   2.581   2.555
   27       -0.005  -0.023   2.321   2.293
   28       -0.005  -0.029   2.394   2.359
   29       -0.032  -0.064  -0.263  -0.359
   30       -0.007  -0.021   2.377   2.349
   31       -0.007  -0.024   2.324   2.293
   32       -0.009  -0.035   2.380   2.336
tot         -0.436  -1.150  55.382  53.796