 vasp.5.4.4.18Apr17-6-g9f103f2a35 (build Sep 06 2021 19:49:22) complex

 executed on             LinuxIFC date 2022.01.02  18:43:02

 INCAR:
 POTCAR:    PAW_PBE Fe 06Sep2000
 POTCAR:    PAW_PBE Ni 02Aug2007

 POTCAR:    PAW_PBE Fe 06Sep2000
   VRHFIN =Fe:  d7 s1

   TITEL  = PAW_PBE Fe 06Sep2000
   POMASS =   55.847; ZVAL   =    8.000    mass and valenz
   ENMAX  =  267.882; ENMIN  =  200.911 eV

 POTCAR:    PAW_PBE Ni 02Aug2007
   VRHFIN =Ni:

   TITEL  = PAW_PBE Ni 02Aug2007
   POMASS =   58.690; ZVAL   =   10.000    mass and valenz
   ENMAX  =  269.532; ENMIN  =  202.149 eV

 Optimization of the real space projectors (new method)

 maximal supplied QI-value         = 16.25
 optimisation between [QCUT,QGAM] = [ 11.54, 23.24] = [ 37.28,151.24] Ry
 Optimized for a Real-space Cutoff    1.53 Angstroem

   l    n(q)    QCUT    max X(q) W(low)/X(q) W(high)/X(q)  e(spline)
   2     10    11.539    80.901    0.11E-03    0.14E-03    0.21E-06
   2     10    11.539    75.754    0.11E-03    0.14E-03    0.22E-06
   0     11    11.539    58.752    0.52E-04    0.18E-04    0.33E-06
   0     11    11.539    30.679    0.44E-04    0.16E-04    0.30E-06
   1     10    11.539    17.977    0.53E-04    0.29E-04    0.13E-06
   1     10    11.539    13.559    0.44E-04    0.25E-04    0.11E-06
 Optimization of the real space projectors (new method)

 maximal supplied QI-value         = 16.25
 optimisation between [QCUT,QGAM] = [ 11.54, 23.24] = [ 37.28,151.24] Ry
 Optimized for a Real-space Cutoff    1.45 Angstroem

   l    n(q)    QCUT    max X(q) W(low)/X(q) W(high)/X(q)  e(spline)
   2      9    11.539    60.317    0.19E-03    0.47E-04    0.16E-06
   2      9    11.539    55.921    0.19E-03    0.48E-04    0.16E-06
   0     10    11.539    51.690    0.80E-04    0.50E-04    0.24E-06
   0     10    11.539    30.015    0.73E-04    0.45E-04    0.22E-06
   1     10    11.539    18.849    0.87E-04    0.16E-03    0.71E-07
   1     10    11.539    14.624    0.73E-04    0.13E-03    0.64E-07
  PAW_PBE Fe 06Sep2000                  :
  PAW_PBE Ni 02Aug2007                  :

 POSCAR: POSCAR
  positions in direct lattice
  velocities in cartesian coordinates
 exchange correlation table for  LEXCH =        8
   RHO(1)=    0.500       N(1)  =     2000
   RHO(2)=  100.500       N(2)  =     4000

 ion  position               nearest neighbor table
   1  0.001  0.997  0.997-  36 2.46  32 2.48  27 2.50   4 2.50  37 2.52   7 2.53   3 2.53  21 2.54
                            38 2.54  41 2.54   5 2.56  48 2.58
   2  0.500  0.999  0.998-  33 2.50  11 2.50  39 2.51  47 2.52  37 2.52  40 2.52  24 2.54   8 2.54
                             3 2.55   9 2.56  46 2.56  22 2.56
   3  0.750  0.995  0.004-  35 2.48  46 2.51  38 2.51  48 2.51  27 2.52   1 2.53  10 2.53  41 2.54
                             2 2.55  24 2.55  40 2.55  11 2.60
   4  0.248  0.244  0.994-   7 2.49   1 2.50  37 2.50   6 2.51  18 2.52  39 2.54  43 2.54  14 2.54
                            38 2.55  13 2.55   5 2.56  15 2.60
   5  0.080  0.168  0.331-  38 2.48  10 2.49  42 2.49  48 2.49   7 2.51  43 2.52  41 2.53  15 2.54
                             4 2.56   1 2.56  32 2.56   6 2.58
   6  0.334  0.164  0.324-  32 2.50   4 2.51  39 2.51  37 2.52   9 2.53  17 2.53  33 2.55   8 2.55
                             7 2.56   5 2.58  18 2.60  15 2.61
   7  0.165  0.085  0.661-   4 2.49  43 2.51  36 2.51   5 2.51  41 2.52   1 2.53   9 2.53  34 2.54
                            37 2.55  18 2.55  32 2.55   6 2.56
   8  0.590  0.171  0.327-  40 2.47  10 2.49  19 2.51  17 2.51  39 2.52  11 2.53   2 2.54  46 2.54
                             6 2.55  33 2.56   9 2.58  20 2.61
   9  0.416  0.086  0.664-  39 2.50  37 2.50  11 2.51   6 2.53   7 2.53  33 2.54  18 2.56   2 2.56
                            34 2.56  47 2.56  20 2.58   8 2.58
  10  0.833  0.166  0.333-   5 2.49   8 2.49  48 2.49  46 2.50  42 2.50  38 2.50  40 2.51  41 2.52
                            19 2.53   3 2.53  44 2.54  11 2.54
  11  0.664  0.085  0.667-   2 2.50  40 2.51  35 2.51  20 2.51   9 2.51  46 2.52   8 2.53  47 2.53
                            44 2.53  10 2.54  41 2.55   3 2.60
  12  0.992  0.494  0.000-  16 2.46  40 2.47  44 2.49  31 2.49  21 2.51  13 2.52  19 2.52  23 2.52
                            42 2.53  38 2.54  22 2.57  26 2.60
  13  0.241  0.493  0.996-  43 2.49  38 2.49  42 2.51  15 2.52  12 2.52  45 2.53  26 2.55   4 2.55
                            24 2.56  22 2.57  14 2.57  25 2.61
  14  0.498  0.497  0.001-  18 2.50  30 2.51  15 2.53  24 2.53  39 2.54  45 2.54  17 2.54   4 2.54
                            16 2.56  13 2.57  27 2.57  28 2.59
  15  0.330  0.420  0.332-  42 2.49  25 2.50  43 2.51  13 2.52  45 2.52  18 2.52  14 2.53   5 2.54
                            17 2.57  28 2.58   4 2.60   6 2.61
  16  0.750  0.497  0.011-  12 2.46  17 2.50  20 2.50  19 2.52  39 2.52  40 2.52  27 2.53  21 2.53
                            31 2.56  29 2.56  14 2.56  30 2.56
  17  0.583  0.416  0.338-  18 2.50  16 2.50   8 2.51   6 2.53  28 2.53  14 2.54  20 2.56  19 2.57
                            15 2.57  30 2.58  39 2.58  29 2.61
  18  0.416  0.339  0.664-  45 2.49  17 2.50  14 2.50  43 2.51   4 2.52  15 2.52  30 2.54   7 2.55
                             9 2.56  39 2.56   6 2.60  20 2.60
  19  0.838  0.418  0.344-  44 2.46  42 2.48  23 2.49   8 2.51  20 2.51  29 2.52  16 2.52  12 2.52
                            10 2.53  31 2.54  17 2.57  40 2.60
  20  0.673  0.338  0.676-  39 2.48  44 2.49  40 2.49  16 2.50  19 2.51  11 2.51  31 2.52  30 2.54
                            17 2.56   9 2.58  18 2.60   8 2.61
  21  0.001  0.746  0.990-  31 2.38  22 2.45  34 2.48  27 2.50  12 2.51  16 2.53  36 2.53  23 2.53
                            37 2.54   1 2.54  32 2.56  29 2.58
  22  0.245  0.749  0.993-  21 2.45  37 2.49  23 2.51  47 2.52  34 2.52  26 2.54  24 2.55  33 2.55
                             2 2.56  12 2.57  13 2.57  25 2.58
  23  0.083  0.665  0.328-  29 2.45  19 2.49  26 2.49  22 2.51  42 2.52  12 2.52  25 2.53  34 2.53
                            21 2.53  32 2.55  33 2.56  31 2.58
  24  0.495  0.746  0.001-  25 2.48  45 2.50  14 2.53  35 2.53  47 2.53   2 2.54   3 2.55  22 2.55
                            13 2.56  46 2.57  28 2.58  27 2.62
  25  0.336  0.671  0.334-  33 2.46  24 2.48  47 2.50  15 2.50  46 2.51  26 2.51  45 2.53  23 2.53
                            28 2.57  22 2.58  42 2.59  13 2.61
  26  0.164  0.581  0.658-  42 2.49  23 2.49  44 2.50  31 2.51  25 2.51  43 2.52  45 2.52  22 2.54
                            47 2.55  34 2.55  13 2.55  12 2.60
  27  0.755  0.749  0.009-   1 2.50  30 2.50  21 2.50  28 2.51   3 2.52  16 2.53  29 2.53  36 2.54
                            48 2.55  14 2.57  24 2.62  35 2.62
  28  0.590  0.670  0.340-  48 2.50  27 2.51  35 2.52  30 2.52  46 2.53  17 2.53  45 2.55  29 2.56
                            25 2.57  15 2.58  24 2.58  14 2.59
  29  0.844  0.671  0.343-  23 2.45  31 2.48  32 2.48  36 2.50  19 2.52  27 2.53  16 2.56  28 2.56
                            30 2.57  48 2.57  21 2.58  17 2.61
  30  0.669  0.587  0.676-  27 2.50  14 2.51  36 2.51  28 2.52  31 2.52  20 2.54  18 2.54  35 2.55
                            45 2.56  16 2.56  29 2.57  17 2.58
  31  0.920  0.590  0.676-  21 2.38  34 2.45  29 2.48  12 2.49  26 2.51  20 2.52  30 2.52  36 2.54
                            19 2.54  16 2.56  44 2.57  23 2.58
  32  0.086  0.918  0.324-  29 2.48   1 2.48   6 2.50  37 2.51  34 2.52  23 2.55   7 2.55  21 2.56
                            48 2.56   5 2.56  33 2.57  36 2.61
  33  0.339  0.915  0.331-  25 2.46  46 2.48   2 2.50  47 2.50   9 2.54   6 2.55  22 2.55   8 2.56
                            23 2.56  34 2.56  32 2.57  37 2.58
  34  0.162  0.833  0.660-  31 2.45  21 2.48  37 2.51  32 2.52  36 2.52  22 2.52  23 2.53   7 2.54
                            26 2.55   9 2.56  33 2.56  47 2.58
  35  0.665  0.837  0.670-   3 2.48  47 2.49  46 2.49  11 2.51  28 2.52  48 2.53  24 2.53  36 2.53
                            45 2.55  41 2.55  30 2.55  27 2.62
  36  0.915  0.838  0.668-   1 2.46  48 2.47  29 2.50   7 2.51  30 2.51  34 2.52  41 2.52  35 2.53
                            21 2.53  27 2.54  31 2.54  32 2.61
  37  0.250  0.998  0.992-  22 2.49   9 2.50   4 2.50  32 2.51  34 2.51   1 2.52   2 2.52   6 2.52
                            39 2.53  21 2.54   7 2.55  33 2.58
  38  0.996  0.245  0.001-  41 2.46   5 2.48  13 2.49  40 2.50  10 2.50   3 2.51  42 2.53  12 2.54
                             1 2.54  44 2.54   4 2.55  43 2.56
  39  0.501  0.248  0.995-  20 2.48   9 2.50   6 2.51   2 2.51   8 2.52  16 2.52  40 2.53  37 2.53
                             4 2.54  14 2.54  18 2.56  17 2.58
  40  0.750  0.247  0.000-   8 2.47  12 2.47  20 2.49  38 2.50  11 2.51  10 2.51   2 2.52  44 2.52
                            16 2.52  39 2.53   3 2.55  19 2.60
  41  0.918  0.089  0.670-  38 2.46  44 2.48  43 2.48   7 2.52  48 2.52  10 2.52  36 2.52   5 2.53
                             3 2.54   1 2.54  11 2.55  35 2.55
  42  0.081  0.414  0.332-  19 2.48  26 2.49   5 2.49  15 2.49  10 2.50  43 2.51  13 2.51  23 2.52
                            44 2.53  12 2.53  38 2.53  25 2.59
  43  0.165  0.333  0.664-  41 2.48  13 2.49   7 2.51  18 2.51  15 2.51  42 2.51   5 2.52  26 2.52
                            44 2.52  45 2.53   4 2.54  38 2.56
  44  0.916  0.334  0.668-  19 2.46  41 2.48  20 2.49  12 2.49  26 2.50  43 2.52  40 2.52  42 2.53
                            11 2.53  10 2.54  38 2.54  31 2.57
  45  0.414  0.583  0.668-  18 2.49  24 2.50  47 2.51  15 2.52  26 2.52  43 2.53  25 2.53  13 2.53
                            14 2.54  28 2.55  35 2.55  30 2.56
  46  0.586  0.918  0.337-  33 2.48  35 2.49  48 2.50  10 2.50   3 2.51  25 2.51  11 2.52  47 2.52
                            28 2.53   8 2.54   2 2.56  24 2.57
  47  0.416  0.833  0.666-  35 2.49  25 2.50  33 2.50  45 2.51   2 2.52  22 2.52  46 2.52  11 2.53
                            24 2.53  26 2.55   9 2.56  34 2.58
  48  0.835  0.920  0.341-  36 2.47   5 2.49  10 2.49  28 2.50  46 2.50   3 2.51  41 2.52  35 2.53
                            27 2.55  32 2.56  29 2.57   1 2.58

IMPORTANT INFORMATION: All symmetrisations will be switched off!
NOSYMM: (Re-)initialisation of all symmetry stuff for point group C_1.

Automatic generation of k-mesh.
 generate k-points for:    3    3    4
Space group operators:
 irot       det(A)        alpha          n_x          n_y          n_z        tau_x        tau_y        tau_z
    1     1.000000     0.000001     1.000000     0.000000     0.000000     0.000000     0.000000     0.000000

 Subroutine IBZKPT returns following result:

 Found     19 irreducible k-points:

 Following reciprocal coordinates:
            Coordinates               Weight
  0.000000  0.000000  0.000000      1.000000
  0.333333  0.000000  0.000000      2.000000
  0.000000  0.333333  0.000000      2.000000
  0.333333  0.333333  0.000000      2.000000
 -0.333333  0.333333  0.000000      2.000000
  0.000000  0.000000  0.250000      2.000000
  0.333333  0.000000  0.250000      2.000000
 -0.333333  0.000000  0.250000      2.000000
  0.000000  0.333333  0.250000      2.000000
  0.333333  0.333333  0.250000      2.000000
[...]
     41       3.8429      1.00000
     42       3.8564      1.00000
     43       3.8639      1.00000
     44       3.8766      1.00000
     45       3.9144      1.00000
     46       3.9293      1.00000
     47       3.9558      1.00000
     48       3.9838      1.00000
     49       4.0159      1.00000
     50       4.0404      1.00000
     51       4.0526      1.00000
     52       4.0931      1.00000
     53       4.1025      1.00000
     54       4.1200      1.00000
     55       4.1362      1.00000
     56       4.1564      1.00000
     57       4.1920      1.00000
     58       4.2007      1.00000
     59       4.2389      1.00000
     60       4.2591      1.00000
[...]
    292      14.3265      0.00000
    293      14.3573      0.00000
    294      14.3993      0.00000
    295      14.4726      0.00000
    296      14.5818      0.00000
    297      14.6248      0.00000
    298      14.6403      0.00000
    299      14.7583      0.00000
    300      14.9711      0.00000
    301      14.9940      0.00000
    302      15.1307      0.00000
    303      15.3325      0.00000
    304      15.3526      0.00000
    305      15.7989      0.00000
    306      15.8246      0.00000

[...]

 soft charge-density along one line, spin component           2
         0         1         2         3         4         5         6         7         8         9
 total charge-density along one line

------------------------ aborting loop because EDIFF is reached ----------------------------------------

[...]

  FORCE on cell =-STRESS in cart. coord.  units (eV):
  Direction    XX          YY          ZZ          XY          YZ          ZX
  Alpha Z  2769.74828  2769.74828  2769.74828
  Ewald  -10648.49551-10718.58302-10663.96770    22.75833    70.84543    -8.74992
  Hartree  2211.72261  2143.95556  2193.75017    21.40471    70.20983    -8.05348
  E(xc)   -2092.67460 -2092.76781 -2092.53167    -0.02500    -0.02803    -0.08858
  Local    1720.54750  1856.99971  1754.52800   -44.56073  -141.34596    14.90092
  n-local -1012.49725 -1013.68985 -1012.82616     0.79685     0.65407     0.20647
  augment  3507.52869  3508.87947  3507.34462     0.10354     0.02981     1.33892
  Kinetic  3549.33552  3548.92091  3547.00663     0.97103    -0.86007     2.41230
  Fock        0.00000     0.00000     0.00000     0.00000     0.00000     0.00000
  Total       5.21523     3.46326     3.05218     1.44875    -0.49490     1.96662
  in kB      15.23964    10.12013     8.91890     4.23345    -1.44618     5.74675

 VOLUME and BASIS-vectors are now :
  energy-cutoff  :      520.00
  volume of cell :      548.29
      direct lattice vectors                 reciprocal lattice vectors
     7.150000000 -7.150000000  0.000000000     0.093240093 -0.046620047 -0.046620047
     0.000000000  7.150000000 -7.150000000     0.046620047  0.046620047 -0.093240093
     3.575000000  3.575000000  3.575000000     0.093240093  0.093240093  0.093240093

  length of vectors
    10.111626971 10.111626971  6.192081637     0.114195326  0.114195326  0.161496579

 FORCES acting on ions
    electron-ion (+dipol)            ewald-force                    non-local-force                 convergence-correction
   -.859E+01 0.426E+02 -.592E+02   0.864E+01 -.430E+02 0.592E+02   -.422E-01 0.333E+00 -.467E-01   0.488E-02 0.124E-01 0.271E-02
   0.240E+02 -.104E+01 -.336E+02   -.240E+02 0.902E+00 0.338E+02   0.299E-01 0.146E+00 -.134E+00   0.920E-02 -.584E-02 -.244E-01
   0.502E+02 0.331E+02 -.591E+02   -.508E+02 -.332E+02 0.594E+02   0.605E+00 0.181E+00 -.299E+00   -.148E-01 0.398E-03 0.578E-02
   -.662E+02 0.368E+01 -.186E+01   0.663E+02 -.340E+01 0.177E+01   -.107E+00 -.272E+00 0.110E+00   0.162E-01 -.135E-01 -.233E-01
   -.500E+02 0.103E+03 -.129E+02   0.502E+02 -.103E+03 0.128E+02   -.186E+00 0.732E+00 0.333E-01   -.210E-02 -.838E-02 -.609E-02
   -.356E+02 -.294E+02 -.113E+02   0.357E+02 0.298E+02 0.116E+02   -.198E+00 -.447E+00 -.278E+00   0.127E-01 -.440E-03 -.152E-01
   -.152E+02 0.847E+02 -.747E+01   0.153E+02 -.850E+02 0.774E+01   -.129E+00 0.349E+00 -.256E+00   0.167E-01 0.543E-02 -.102E-01
   0.144E+02 -.863E+02 -.101E+02   -.143E+02 0.867E+02 0.105E+02   -.123E+00 -.376E+00 -.347E+00   -.107E-01 -.379E-02 -.103E-01
   0.431E+02 0.589E+01 0.469E+02   -.432E+02 -.625E+01 -.472E+02   0.562E-01 0.345E+00 0.349E+00   0.531E-02 0.132E-01 -.242E-01
   0.382E+02 -.259E+02 -.650E+01   -.383E+02 0.261E+02 0.644E+01   0.122E+00 -.241E+00 0.338E-01   -.318E-01 -.962E-03 0.180E-01
   0.512E+02 -.344E+02 -.779E+01   -.515E+02 0.347E+02 0.790E+01   0.287E+00 -.338E+00 -.127E+00   -.306E-01 0.456E-03 0.146E-01
   -.330E+02 -.673E+02 0.802E+02   0.334E+02 0.676E+02 -.806E+02   -.355E+00 -.338E+00 0.440E+00   0.585E-02 -.728E-02 0.247E-01
   -.827E+02 -.154E+02 0.376E+02   0.831E+02 0.156E+02 -.379E+02   -.532E+00 -.167E+00 0.225E+00   0.500E-01 -.338E-01 -.473E-02
   -.507E+02 -.124E+02 0.151E+01   0.508E+02 0.126E+02 -.157E+01   -.820E-01 -.170E+00 0.663E-01   0.269E-01 -.377E-02 -.710E-03
   -.429E+02 0.916E+02 0.322E+02   0.429E+02 -.922E+02 -.325E+02   0.117E-01 0.675E+00 0.291E+00   0.310E-01 -.158E-01 0.126E-02
   -.114E+01 -.696E+02 0.464E+02   0.131E+01 0.697E+02 -.468E+02   -.145E+00 -.219E+00 0.426E+00   -.146E-01 0.724E-01 0.203E-01
   -.172E+02 -.315E+02 0.152E+02   0.174E+02 0.316E+02 -.152E+02   -.232E+00 -.168E+00 0.532E-02   -.566E-02 0.165E-01 0.374E-02
   -.235E+02 0.656E+02 0.162E+02   0.236E+02 -.659E+02 -.161E+02   -.109E+00 0.291E+00 -.758E-01   0.268E-01 0.768E-03 -.129E-01
   0.431E+02 -.921E+02 0.503E+02   -.436E+02 0.923E+02 -.507E+02   0.500E+00 -.185E+00 0.413E+00   -.521E-01 -.151E-02 0.298E-03
   0.724E+02 -.438E+02 0.681E+02   -.728E+02 0.438E+02 -.684E+02   0.449E+00 0.663E-02 0.281E+00   -.451E-01 0.351E-01 0.190E-01
   0.133E+02 -.261E+02 -.221E+02   -.133E+02 0.264E+02 0.223E+02   0.909E-02 -.343E+00 -.192E+00   -.238E-01 0.741E-01 -.871E-02
   -.401E+01 -.868E+01 -.273E+02   0.422E+01 0.854E+01 0.278E+02   -.242E+00 0.157E+00 -.558E+00   0.253E-01 -.177E-01 -.831E-02
   0.342E+01 -.384E+02 0.474E+02   -.316E+01 0.385E+02 -.477E+02   -.239E+00 -.130E+00 0.320E+00   -.225E-01 0.900E-03 -.307E-01
   -.205E+02 0.164E+02 -.417E+02   0.208E+02 -.163E+02 0.417E+02   -.291E+00 -.108E+00 -.181E-01   0.275E-01 -.280E-01 -.705E-02
   0.368E+02 0.330E+02 0.293E+02   -.371E+02 -.330E+02 -.294E+02   0.305E+00 0.294E-01 0.143E+00   0.344E-01 -.512E-01 0.155E-02
   -.210E+02 -.703E+02 0.515E+02   0.210E+02 0.708E+02 -.518E+02   -.878E-01 -.450E+00 0.333E+00   0.331E-01 -.469E-01 0.285E-02
   0.254E+02 0.305E+02 -.422E+02   -.258E+02 -.306E+02 0.420E+02   0.454E+00 0.104E+00 0.232E+00   -.200E-01 0.304E-01 0.133E-01
   0.213E+02 0.746E+02 -.369E+02   -.215E+02 -.749E+02 0.371E+02   0.206E+00 0.337E+00 -.243E+00   0.432E-02 -.990E-02 0.161E-01
   0.263E+02 0.551E+01 -.202E+02   -.264E+02 -.564E+01 0.204E+02   0.206E+00 0.970E-01 -.143E+00   -.683E-01 0.422E-01 0.242E-02
   -.862E+01 0.252E+02 -.483E+01   0.872E+01 -.253E+02 0.484E+01   -.655E-01 0.113E+00 -.791E-02   -.257E-01 0.407E-01 0.636E-02
   0.298E+02 -.422E+02 0.388E+02   -.299E+02 0.422E+02 -.389E+02   0.209E+00 -.436E-01 0.424E-01   -.245E-01 0.372E-01 0.897E-03
   -.201E+02 0.186E+02 -.333E+02   0.204E+02 -.184E+02 0.337E+02   -.276E+00 -.227E+00 -.319E+00   -.219E-01 0.219E-01 -.111E-01
   0.376E+02 -.444E+02 0.227E+01   -.379E+02 0.446E+02 -.241E+01   0.230E+00 -.134E+00 0.175E+00   0.401E-01 -.769E-02 -.370E-01
   0.322E+02 0.471E+01 0.210E+02   -.325E+02 -.479E+01 -.210E+02   0.273E+00 0.655E-01 0.142E-01   0.314E-01 0.870E-02 -.375E-01
   -.297E+02 0.275E+02 -.798E+02   0.300E+02 -.276E+02 0.801E+02   -.307E+00 0.812E-01 -.332E+00   -.751E-02 -.203E-01 0.190E-01
   -.850E+00 0.431E+02 -.572E+02   0.115E+01 -.434E+02 0.576E+02   -.269E+00 0.289E+00 -.455E+00   -.311E-01 0.365E-01 0.679E-02
   0.130E+02 -.317E+01 -.332E+02   -.132E+02 0.316E+01 0.334E+02   0.158E+00 0.995E-02 -.191E+00   0.158E-01 -.441E-02 -.354E-01
   -.629E+02 0.141E+02 -.293E+02   0.631E+02 -.142E+02 0.295E+02   -.220E+00 0.896E-01 -.206E+00   0.757E-02 -.121E-01 0.166E-01
   0.262E+01 -.601E+02 0.377E+02   -.259E+01 0.605E+02 -.378E+02   -.418E-01 -.371E+00 0.151E+00   0.430E-02 0.449E-03 -.124E-01
   0.325E+02 -.744E+02 -.461E+01   -.324E+02 0.744E+02 0.477E+01   -.556E-01 -.664E-01 -.200E+00   -.248E-01 0.188E-01 0.442E-01
   0.223E+02 0.611E+02 -.883E+02   -.225E+02 -.613E+02 0.886E+02   0.225E+00 0.144E+00 -.321E+00   -.308E-01 -.970E-02 0.332E-01
   -.235E+02 -.161E+01 0.981E+02   0.236E+02 0.177E+01 -.984E+02   -.113E+00 -.121E+00 0.324E+00   0.477E-02 -.432E-01 -.212E-02
   -.891E+02 0.704E+02 0.158E+02   0.894E+02 -.706E+02 -.158E+02   -.280E+00 0.247E+00 -.676E-01   0.400E-01 -.200E-01 0.123E-01
   0.451E+02 -.795E+02 0.684E+02   -.452E+02 0.797E+02 -.686E+02   0.141E+00 -.255E+00 0.152E+00   -.397E-01 -.315E-01 0.568E-01
   -.645E+02 0.471E+02 -.193E+01   0.646E+02 -.473E+02 0.174E+01   -.211E+00 0.169E+00 0.182E+00   0.467E-01 -.267E-01 0.163E-01
   0.627E+02 0.109E+02 -.533E+01   -.629E+02 -.109E+02 0.524E+01   0.204E+00 0.421E-01 0.100E+00   0.199E-01 -.473E-01 -.141E-01
   0.203E+02 -.578E+02 -.776E+01   -.203E+02 0.582E+02 0.780E+01   0.358E-01 -.409E+00 -.234E-01   0.503E-01 -.291E-01 -.140E-01
   0.103E+02 0.103E+03 -.592E+02   -.104E+02 -.104E+03 0.593E+02   0.172E+00 0.497E+00 -.600E-01   -.380E-01 -.126E-01 0.227E-01
   0.470E-01 0.920E-01 0.258E-01   -.213E-13 0.171E-12 0.540E-12   -.493E-01 -.465E-01 -.574E-01   0.474E-02 -.448E-01 0.313E-01

 POSITION                                       TOTAL-FORCE (eV/Angst)
      3.57065     10.68210     -3.56168         0.011061      0.001935     -0.004707
      7.14329      7.13349     -3.57562        -0.007449     -0.000800     -0.005989
      5.37514      1.76640     -7.10062         0.000801      0.000675     -0.015477
      5.32686      3.52412      1.80838        -0.002043     -0.001312     -0.003914
      1.75793      1.81053     -0.01530        -0.001622      0.002663     -0.004000
      3.54694     -0.05274     -0.01519        -0.012464     -0.001160      0.005397
      3.54299      1.79488      1.75521        -0.005106      0.002507      0.000375
      5.38711     -1.82386     -0.05291        -0.001543     -0.005646     -0.003607
      5.34325      0.01371      1.75929        -0.011417      0.003548     -0.004595
      7.15117     -3.57839      0.00344         0.000858      0.000592     -0.001286
      7.13085     -1.75329      1.77393        -0.011244     -0.000381     -0.002142
      7.09489     -3.56364     -3.52899         0.002174     -0.010726     -0.003119
      5.28788      5.36198      0.03559         0.009428     -0.000420     -0.004128
      3.56289     -0.00213     -3.55211         0.009337      0.005153      0.008422
      3.54923      1.83418     -1.81634        -0.000359      0.005579      0.013535
      5.40758     -1.77182     -3.51141         0.014517      0.009734      0.005015
      5.37248      0.01577     -1.76608         0.001797      0.001541      0.017406
      5.34882      1.82361     -0.04542         0.004050      0.004190      0.001258
      7.22206     -1.76863     -1.76041         0.009043     -0.006738     -0.002726
      7.22561      0.02260     -0.00008         0.003338      0.002913      0.002875
      3.54654      8.86693     -1.79190        -0.004282      0.017139     -0.006158
      5.29804      7.15694     -1.80415        -0.007121      0.002910      0.002563
      1.76733      5.33068     -3.57895        -0.006266     -0.000320     -0.011646
      3.54396      1.79629     -5.32791         0.002604      0.001386     -0.009167
      3.59727      3.58487     -3.60405        -0.001379     -0.002494      0.001862
      3.52068      5.33783     -1.80507        -0.009599     -0.009382     -0.002646
      5.43179     -0.01303     -5.32301         0.005738      0.010796     -0.006381
      5.43477      1.78787     -3.57439        -0.004513      0.004005      0.008735
      7.25958     -0.01310     -3.56804        -0.001543      0.005483      0.007406
      7.20350      1.83344     -1.78177         0.006857      0.006927      0.006549
      8.99577      0.05398     -1.80087         0.014382     -0.004498      0.001564
      1.77375      7.10243     -5.40499        -0.004737      0.000106      0.004896
      3.60798      5.30326     -5.36123         0.003750     -0.004530     -0.003325
      3.51797      7.15836     -3.59265         0.001705     -0.006665     -0.000737
      7.14772      3.63201     -3.59125        -0.001539     -0.005724     -0.002017
      8.93361      1.83757     -3.60645         0.005357      0.002089      0.002964
      5.33662      8.88882     -3.58619        -0.003903     -0.004913      0.003618
      7.12839     -5.36835     -1.74925         0.001968     -0.000697     -0.005685
      7.13786      1.74789      1.78449        -0.000575     -0.004626      0.000744
      5.36539     -3.59540     -1.76661         0.002339     -0.003828      0.000119
      8.95795     -3.53068      1.76008        -0.003693     -0.002253      0.002053
      1.76583      3.57366     -1.77436        -0.000088     -0.000364     -0.005683
      3.55261      3.57407     -0.00859        -0.002543      0.006664      0.005260
      8.93828     -1.77903     -0.00017        -0.007130     -0.006222      0.007051
      5.34854      3.60020     -1.78340        -0.000133      0.008107      0.007699
      5.39517      3.57616     -5.36125         0.001015     -0.012732     -0.007269
      5.35875      5.35768     -3.57132        -0.001476     -0.004883      0.000080
      7.18672      1.82979     -5.36044         0.001649     -0.005327     -0.001040
    total drift:                                0.002524      0.000642     -0.000294

  FREE ENERGIE OF THE ION-ELECTRON SYSTEM (eV)
  free  energy   TOTEN  =      -358.78686446 eV

  energy  without entropy=     -358.82356785  energy(sigma->0) =     -358.79909892

 d Force = 0.3262609E-03[ 0.285E-03, 0.367E-03]  d Energy = 0.3336166E-03-0.736E-05
 d Force =-0.2648530E+00[-0.267E+00,-0.262E+00]  d Ewald  =-0.2648538E+00 0.742E-06

 Steepest descent step on ions:
 trial-energy change:   -0.000334  1 .order   -0.000326   -0.000367   -0.000285
  (g-gl).g = 0.367E-03      g.g   = 0.367E-03  gl.gl    = 0.000E+00
 g(Force)  = 0.367E-03   g(Stress)= 0.000E+00 ortho     = 0.000E+00
 gamma     =   0.00000
 trial     =   1.00000
 opt step  =   4.00000  (harmonic =   4.49139) maximal distance =0.00365100
 next E    =  -358.787355   (d E  =  -0.00082)

 reached required accuracy - stopping structural energy minimisation

 total charge

[...]

 magnetization (x)

# of ion       s       p       d       tot
    1       -0.007  -0.029   2.494   2.458
    2       -0.007  -0.031   2.638   2.599
    3       -0.008  -0.029   2.617   2.580
    4       -0.011  -0.036   2.568   2.521
    5       -0.007  -0.030   2.639   2.601
    6       -0.012  -0.041   2.576   2.522
    7       -0.014  -0.039   2.545   2.493
    8       -0.013  -0.042   2.573   2.519
    9       -0.010  -0.040   2.594   2.543
   10       -0.004  -0.020   2.626   2.603
   11       -0.009  -0.029   2.585   2.547
   12       -0.003  -0.023   2.443   2.417
   13       -0.009  -0.033   2.641   2.599
   14       -0.013  -0.041   2.589   2.535
   15       -0.012  -0.038   2.619   2.569
   16       -0.008  -0.031   2.412   2.372
   17       -0.017  -0.046   2.548   2.486
   18       -0.011  -0.038   2.587   2.538
   19       -0.010  -0.032   2.427   2.384
   20       -0.006  -0.032   2.546   2.508
   21       -0.028  -0.059   0.059  -0.028
   22       -0.012  -0.042   2.425   2.371
   23       -0.012  -0.038   2.196   2.146
   24       -0.010  -0.038   2.604   2.556
   25       -0.010  -0.032   2.526   2.485
   26       -0.003  -0.025   2.534   2.506
   27       -0.014  -0.045   2.442   2.383
   28       -0.010  -0.036   2.622   2.576
   29       -0.008  -0.034   2.300   2.258
   30       -0.014  -0.042   2.428   2.372
   31       -0.030  -0.059  -0.118  -0.207
   32       -0.011  -0.037   2.467   2.420
   33       -0.011  -0.037   2.536   2.488
   34       -0.007  -0.030   2.353   2.316
   35       -0.006  -0.030   2.590   2.553
   36       -0.009  -0.031   2.369   2.330
   37       -0.029  -0.060   0.715   0.625
   38       -0.023  -0.052   0.749   0.675
   39       -0.028  -0.063   0.756   0.665
   40       -0.030  -0.060   0.731   0.641
   41       -0.026  -0.058   0.745   0.661
   42       -0.029  -0.059   0.702   0.614
   43       -0.025  -0.050   0.747   0.672
   44       -0.021  -0.042   0.710   0.647
   45       -0.030  -0.065   0.704   0.610
   46       -0.033  -0.067   0.729   0.629
   47       -0.030  -0.061   0.723   0.631
   48       -0.030  -0.063   0.760   0.667
tot         -0.722  -1.992  94.372  91.659