 vasp.5.4.4.18Apr17-6-g9f103f2a35 (build Sep 06 2021 19:49:22) complex

 executed on             LinuxIFC date 2022.01.05  02:48:00

 INCAR:
 POTCAR:    PAW_PBE Ni 02Aug2007
 POTCAR:    PAW_PBE Fe 06Sep2000

 POTCAR:    PAW_PBE Ni 02Aug2007
   VRHFIN =Ni:

   TITEL  = PAW_PBE Ni 02Aug2007
   POMASS =   58.690; ZVAL   =   10.000    mass and valenz
   ENMAX  =  269.532; ENMIN  =  202.149 eV

 POTCAR:    PAW_PBE Fe 06Sep2000
   VRHFIN =Fe:  d7 s1

   TITEL  = PAW_PBE Fe 06Sep2000
   POMASS =   55.847; ZVAL   =    8.000    mass and valenz
   ENMAX  =  267.882; ENMIN  =  200.911 eV

 Optimization of the real space projectors (new method)

 maximal supplied QI-value         = 16.25
 optimisation between [QCUT,QGAM] = [ 11.54, 23.24] = [ 37.28,151.24] Ry
 Optimized for a Real-space Cutoff    1.45 Angstroem

   l    n(q)    QCUT    max X(q) W(low)/X(q) W(high)/X(q)  e(spline)
   2      9    11.539    60.317    0.19E-03    0.47E-04    0.16E-06
   2      9    11.539    55.921    0.19E-03    0.48E-04    0.16E-06
   0     10    11.539    51.690    0.80E-04    0.50E-04    0.24E-06
   0     10    11.539    30.015    0.73E-04    0.45E-04    0.22E-06
   1     10    11.539    18.849    0.87E-04    0.16E-03    0.71E-07
   1     10    11.539    14.624    0.73E-04    0.13E-03    0.64E-07
 Optimization of the real space projectors (new method)

 maximal supplied QI-value         = 16.25
 optimisation between [QCUT,QGAM] = [ 11.54, 23.24] = [ 37.28,151.24] Ry
 Optimized for a Real-space Cutoff    1.53 Angstroem

   l    n(q)    QCUT    max X(q) W(low)/X(q) W(high)/X(q)  e(spline)
   2     10    11.539    80.901    0.11E-03    0.14E-03    0.21E-06
   2     10    11.539    75.754    0.11E-03    0.14E-03    0.22E-06
   0     11    11.539    58.752    0.52E-04    0.18E-04    0.33E-06
   0     11    11.539    30.679    0.44E-04    0.16E-04    0.30E-06
   1     10    11.539    17.977    0.53E-04    0.29E-04    0.13E-06
   1     10    11.539    13.559    0.44E-04    0.25E-04    0.11E-06
  PAW_PBE Ni 02Aug2007                  :
  PAW_PBE Fe 06Sep2000                  :

 POSCAR: POSCAR
  positions in direct lattice
  velocities in cartesian coordinates
 exchange correlation table for  LEXCH =        8
   RHO(1)=    0.500       N(1)  =     2000
   RHO(2)=  100.500       N(2)  =     4000

 ion  position               nearest neighbor table
   1  0.001  0.001  0.096-  44 2.49   9 2.50  13 2.50  38 2.50   3 2.50  11 2.50  30 2.50   7 2.51
                            48 2.52
   2  0.000  0.000  0.382-  51 2.44  22 2.47  10 2.48   4 2.48  50 2.48  31 2.50  39 2.51   8 2.51
                            12 2.53
   3  0.250  0.000  0.095-  30 2.50   1 2.50  14 2.50  11 2.51   5 2.51  44 2.51  32 2.52  45 2.52
                            16 2.52
   4  0.249  0.002  0.382-  52 2.46  51 2.47  46 2.48   2 2.48  15 2.49  31 2.50  12 2.50  33 2.52
                             6 2.53
   5  0.499  0.999  0.096-  45 2.49  14 2.50   7 2.50  64 2.51  35 2.51   3 2.51  32 2.51  17 2.52
                            19 2.53
   6  0.500  0.999  0.383-  52 2.45  21 2.47  47 2.48  15 2.49   8 2.50  33 2.50  36 2.51  18 2.52
                             4 2.53
   7  0.749  0.999  0.096-  38 2.50   9 2.50   5 2.50  35 2.50  64 2.51  48 2.51  17 2.51   1 2.51
                            20 2.52
   8  0.749  0.999  0.382-  49 2.47  21 2.47  22 2.47  10 2.49   6 2.50  39 2.50  36 2.51   2 2.51
                            18 2.52
   9  0.999  0.249  0.096-  17 2.50   1 2.50   7 2.50  13 2.51  53 2.51  20 2.51  23 2.51  11 2.51
                            25 2.52
  10  0.998  0.247  0.384-  61 2.42   2 2.48   8 2.49  22 2.49  26 2.50  18 2.51  54 2.51  12 2.52
                            24 2.52
  11  0.250  0.250  0.095-   1 2.50  53 2.50   3 2.51  16 2.51   9 2.51  13 2.52  57 2.52  14 2.52
                            55 2.55
  12  0.252  0.253  0.384-  58 2.45  26 2.49  54 2.50   4 2.50  15 2.51  51 2.51  10 2.52  56 2.52
                             2 2.53
  13  0.083  0.166  0.192-  51 2.47  22 2.48  20 2.50   1 2.50  44 2.50  57 2.50  16 2.50   9 2.51
                            48 2.51  25 2.51  11 2.52  26 2.52
  14  0.501  0.249  0.096-   5 2.50  17 2.50   3 2.50  19 2.51  16 2.51  29 2.51  55 2.51  11 2.52
                            27 2.53
  15  0.499  0.247  0.385-  60 2.45  58 2.47   4 2.49   6 2.49  18 2.50  12 2.51  52 2.51  56 2.53
                            28 2.53
  16  0.333  0.167  0.192-  19 2.50  13 2.50  29 2.51  44 2.51  51 2.51  45 2.51  11 2.51  14 2.51
                            57 2.52   3 2.52  52 2.53  58 2.53
  17  0.751  0.250  0.097-  59 2.48   9 2.50  14 2.50  20 2.50   7 2.51  23 2.52  19 2.52   5 2.52
                            27 2.52
  18  0.750  0.251  0.385-  60 2.44  61 2.45  15 2.50  24 2.50  28 2.51  10 2.51  21 2.52   8 2.52
                             6 2.52
  19  0.582  0.167  0.193-  52 2.47  21 2.48  29 2.49  45 2.50  16 2.50  14 2.51  17 2.52  64 2.52
                            59 2.52  60 2.53  20 2.53   5 2.53
  20  0.834  0.167  0.193-  22 2.47  25 2.49  21 2.49  48 2.49  13 2.50  17 2.50  61 2.51   9 2.51
                            64 2.51   7 2.52  59 2.53  19 2.53
  21  0.666  0.084  0.288-  52 2.47  61 2.47   8 2.47   6 2.47  60 2.47  19 2.48  20 2.49  64 2.50
                            47 2.51  18 2.52  22 2.52  49 2.52
  22  0.917  0.083  0.288-  61 2.46  51 2.46   2 2.47  48 2.47  20 2.47   8 2.47  13 2.48  10 2.49
                            50 2.51  49 2.51  21 2.52  26 2.52
  23  0.002  0.500  0.094-  53 2.48  32 2.48   9 2.51  27 2.52  17 2.52  30 2.52  59 2.52  25 2.52
                            34 2.52
  24  0.001  0.500  0.382-  61 2.44  54 2.46  43 2.49  62 2.50  33 2.50  18 2.50  28 2.51  31 2.52
                            10 2.52
  25  0.081  0.416  0.193-  20 2.49  62 2.49  59 2.49  26 2.49  57 2.51  34 2.51  13 2.51   9 2.52
                            23 2.52  37 2.52  53 2.53  61 2.54
  26  0.167  0.336  0.289-  54 2.46  61 2.48  41 2.49  57 2.49  12 2.49  25 2.49  10 2.50  51 2.51
                            13 2.52  22 2.52  62 2.53  58 2.53
  27  0.752  0.502  0.095-  55 2.46  38 2.50  59 2.50  30 2.50  42 2.51  23 2.52  17 2.52  14 2.53
                            29 2.54
  28  0.751  0.501  0.383-  60 2.43  56 2.46  43 2.49  39 2.50  63 2.51  18 2.51  31 2.51  24 2.51
                            15 2.53
  29  0.584  0.416  0.193-  19 2.49  55 2.49  59 2.50  63 2.50  16 2.51  14 2.51  40 2.51  42 2.52
                            58 2.52  57 2.53  27 2.54  60 2.56
  30  0.001  0.751  0.095-   3 2.50  32 2.50  27 2.50   1 2.50  38 2.50  34 2.51  44 2.51  42 2.52
                            23 2.52
  31  0.001  0.751  0.381-  50 2.46  46 2.47  43 2.48  33 2.50   4 2.50   2 2.50  39 2.51  28 2.51
                            24 2.52
  32  0.249  0.749  0.094-  23 2.48  30 2.50  37 2.50  53 2.50  34 2.51   5 2.51  35 2.51   3 2.52
                            45 2.53
  33  0.249  0.750  0.382-  62 2.45  47 2.46  46 2.48  31 2.50   6 2.50  24 2.50  54 2.51  36 2.51
                             4 2.52
  34  0.084  0.668  0.191-  62 2.47  46 2.49  43 2.49  44 2.50  42 2.50  37 2.50  45 2.50  30 2.51
                            59 2.51  32 2.51  25 2.51  23 2.52
  35  0.500  0.749  0.095-  40 2.50  37 2.50   7 2.50   5 2.51  55 2.51  32 2.51  38 2.51  53 2.51
                            64 2.53
  36  0.499  0.748  0.383-  41 2.46  47 2.47  49 2.48  56 2.50  39 2.51   6 2.51   8 2.51  33 2.51
                            54 2.52
  37  0.333  0.667  0.191-  62 2.47  45 2.50  57 2.50  32 2.50  34 2.50  53 2.50  47 2.50  64 2.50
                            35 2.50  40 2.51  25 2.52  41 2.53
  38  0.751  0.751  0.095-  55 2.47  42 2.50   7 2.50  27 2.50  40 2.50   1 2.50  30 2.50  35 2.51
                            48 2.52
  39  0.750  0.750  0.382-  63 2.45  49 2.46  56 2.47  50 2.47  28 2.50   8 2.50  36 2.51  31 2.51
                             2 2.51
  40  0.583  0.667  0.191-  55 2.47  63 2.48  38 2.50  35 2.50  64 2.50  48 2.51  49 2.51  37 2.51
                            42 2.51  41 2.51  57 2.51  29 2.51
  41  0.417  0.582  0.288-  36 2.46  57 2.49  26 2.49  63 2.49  58 2.50  47 2.50  49 2.51  54 2.51
                            40 2.51  62 2.52  37 2.53  56 2.57
  42  0.834  0.668  0.192-  50 2.48  63 2.48  43 2.48  38 2.50  44 2.50  59 2.50  34 2.50  48 2.51
                            27 2.51  40 2.51  30 2.52  29 2.52
  43  0.916  0.582  0.287-  59 2.47  31 2.48  42 2.48  34 2.49  24 2.49  28 2.49  62 2.50  60 2.51
                            50 2.51  63 2.51  46 2.52  61 2.56
  44  0.083  0.917  0.192-  46 2.47  50 2.48   1 2.49  42 2.50  51 2.50  34 2.50  13 2.50  16 2.51
                            30 2.51   3 2.51  48 2.51  45 2.52
  45  0.334  0.917  0.192-  52 2.47  46 2.48   5 2.49  19 2.50  64 2.50  37 2.50  47 2.50  34 2.50
                            16 2.51   3 2.52  44 2.52  32 2.53
  46  0.167  0.835  0.287-  31 2.47  44 2.47  52 2.47  45 2.48   4 2.48  62 2.48  33 2.48  34 2.49
                            50 2.50  51 2.51  43 2.52  47 2.53
  47  0.417  0.832  0.288-  33 2.46  62 2.46  52 2.46  36 2.47   6 2.48  64 2.49  49 2.49  45 2.50
                            37 2.50  41 2.50  21 2.51  46 2.53
  48  0.832  0.917  0.193-  22 2.47  50 2.47  49 2.48  20 2.49  64 2.50  13 2.51  40 2.51   7 2.51
                            42 2.51  44 2.51  38 2.52   1 2.52
  49  0.666  0.833  0.288-  39 2.46  63 2.46   8 2.47  48 2.48  36 2.48  64 2.49  47 2.49  41 2.51
                            40 2.51  22 2.51  50 2.51  21 2.52
  50  0.916  0.833  0.287-  31 2.46  63 2.47  48 2.47  39 2.47  42 2.48  44 2.48   2 2.48  51 2.49
                            46 2.50  22 2.51  43 2.51  49 2.51
  51  0.162  0.083  0.288-   2 2.44  22 2.46  13 2.47   4 2.47  50 2.49  44 2.50  12 2.51  26 2.51
                            16 2.51  46 2.51  58 2.54  52 2.59
  52  0.417  0.078  0.288-   6 2.45   4 2.46  47 2.46  21 2.47  45 2.47  19 2.47  46 2.47  15 2.51
                            16 2.53  60 2.53  58 2.56  51 2.59
  53  0.248  0.499  0.095-  23 2.48  32 2.50  37 2.50  11 2.50   9 2.51  57 2.51  35 2.51  25 2.53
                            55 2.57
  54  0.246  0.499  0.384-  26 2.46  24 2.46  12 2.50  33 2.51  10 2.51  41 2.51  36 2.52  62 2.52
                            56 2.59
  55  0.506  0.503  0.096-  27 2.46  40 2.47  38 2.47  29 2.49  35 2.51  14 2.51  57 2.55  11 2.55
                            53 2.57
  56  0.506  0.502  0.388-  28 2.46  39 2.47  36 2.50  12 2.52  15 2.53  58 2.54  63 2.56  41 2.57
                            54 2.59
  57  0.331  0.417  0.192-  41 2.49  26 2.49  37 2.50  13 2.50  25 2.51  53 2.51  40 2.51  11 2.52
                            16 2.52  29 2.53  58 2.54  55 2.55
  58  0.418  0.333  0.290-  12 2.45  15 2.47  41 2.50  60 2.51  29 2.52  16 2.53  26 2.53  51 2.54
                            56 2.54  63 2.54  57 2.54  52 2.56
  59  0.834  0.418  0.191-  43 2.47  17 2.48  25 2.49  29 2.50  42 2.50  27 2.50  34 2.51  23 2.52
                            19 2.52  20 2.53  60 2.57  61 2.60
  60  0.667  0.332  0.292-  28 2.43  18 2.44  15 2.45  21 2.47  61 2.51  43 2.51  58 2.51  19 2.53
[...]
   -.123E+02 -.450E+02 -.287E+04   0.122E+02 0.451E+02 0.286E+04   0.518E-01 -.731E-01 0.143E+01   0.209E-02 0.116E-02 -.930E-03
   -.193E+02 -.194E+01 0.289E+04   0.193E+02 0.179E+01 -.289E+04   -.176E-01 0.646E-01 -.152E+01   -.171E-02 0.369E-02 -.980E-03
   0.319E+02 -.187E+02 -.291E+04   -.318E+02 0.187E+02 0.291E+04   -.679E-01 0.258E-01 0.161E+01   -.303E-02 0.428E-03 -.121E-03
   0.275E+02 0.380E+01 0.290E+04   -.276E+02 -.399E+01 -.290E+04   0.623E-01 0.750E-01 -.146E+01   0.163E-02 0.432E-02 -.235E-03
   0.804E+01 -.207E+01 -.293E+04   -.802E+01 0.210E+01 0.293E+04   -.761E-02 -.443E-01 0.159E+01   -.184E-02 0.840E-03 0.138E-03
   -.247E+02 -.571E+02 0.290E+04   0.247E+02 0.571E+02 -.290E+04   0.106E-01 0.218E-02 -.119E+01   0.413E-03 0.242E-02 0.105E-02
   -.277E+02 -.706E+02 -.292E+04   0.277E+02 0.706E+02 0.292E+04   0.587E-01 0.148E-01 0.114E+01   0.124E-02 0.290E-02 -.201E-02
   -.138E+02 -.112E+03 0.288E+04   0.138E+02 0.113E+03 -.288E+04   0.127E-01 -.345E+00 -.968E+00   -.874E-03 -.779E-03 0.102E-03
   -.343E+02 -.759E+02 -.287E+04   0.344E+02 0.761E+02 0.287E+04   -.439E-01 -.290E+00 0.110E+01   0.207E-02 0.186E-02 -.255E-02
   -.503E+02 -.875E+02 0.921E+03   0.502E+02 0.875E+02 -.921E+03   0.500E-01 0.151E+00 -.122E+00   0.114E-04 0.354E-02 -.377E-02
   0.272E+02 -.579E+02 0.288E+04   -.272E+02 0.580E+02 -.288E+04   -.279E-01 -.353E-02 -.124E+01   -.424E-03 0.133E-02 -.157E-03
   0.399E+02 -.554E+02 -.285E+04   -.399E+02 0.554E+02 0.285E+04   0.246E-01 -.510E-01 0.144E+01   -.129E-02 -.153E-04 -.239E-02
   -.142E+01 -.928E+02 0.855E+03   0.144E+01 0.928E+02 -.854E+03   -.109E-01 0.587E-02 -.310E+00   -.118E-02 0.256E-02 -.252E-02
   0.107E+02 -.231E+02 0.286E+04   -.107E+02 0.231E+02 -.286E+04   0.145E-01 -.427E-01 -.131E+01   0.926E-03 0.396E-02 0.788E-04
   0.210E+02 -.367E+02 -.291E+04   -.209E+02 0.368E+02 0.291E+04   -.403E-01 -.149E+00 0.149E+01   -.212E-02 0.982E-03 -.173E-02
   0.171E+01 -.583E+02 0.864E+03   -.175E+01 0.584E+02 -.864E+03   0.824E-01 -.760E-01 -.240E+00   -.149E-03 0.382E-02 -.227E-02
   0.518E+02 -.605E+02 0.909E+03   -.518E+02 0.606E+02 -.909E+03   -.610E-01 0.298E-01 -.219E+00   0.129E-02 0.462E-02 -.361E-02
   0.491E+02 -.675E+02 -.952E+03   -.490E+02 0.675E+02 0.952E+03   -.356E-01 0.158E-01 0.211E+00   -.155E-02 0.363E-02 -.303E-02
   -.129E+02 -.632E+02 -.976E+03   0.128E+02 0.630E+02 0.976E+03   0.115E+00 0.136E+00 0.222E+00   0.126E-02 0.452E-02 -.496E-02
   -.234E+02 0.284E+02 0.290E+04   0.233E+02 -.284E+02 -.290E+04   -.338E-01 -.322E-01 -.136E+01   -.381E-03 -.339E-02 0.155E-03
   -.395E+02 0.781E+01 -.286E+04   0.396E+02 -.782E+01 0.286E+04   -.120E+00 0.191E-01 0.113E+01   0.152E-02 0.675E-03 -.147E-02
   -.166E+02 -.217E+02 0.907E+03   0.167E+02 0.217E+02 -.907E+03   -.111E+00 -.201E-01 -.334E+00   -.559E-03 -.264E-02 -.332E-02
   -.528E+02 -.591E+02 -.993E+03   0.529E+02 0.591E+02 0.992E+03   -.655E-01 0.102E-01 0.353E+00   0.819E-03 0.506E-03 -.373E-02
   0.313E+02 0.371E+02 0.289E+04   -.312E+02 -.371E+02 -.289E+04   -.877E-03 -.238E-01 -.139E+01   0.161E-02 -.265E-02 -.260E-04
   0.541E+02 0.278E+02 -.285E+04   -.541E+02 -.277E+02 0.285E+04   0.395E-01 -.594E-01 0.122E+01   -.125E-02 -.226E-02 -.178E-02
   0.362E+02 0.117E+02 0.862E+03   -.364E+02 -.118E+02 -.861E+03   0.168E+00 0.535E-01 -.623E+00   0.823E-03 -.160E-02 -.197E-02
   -.126E+00 0.251E+02 0.293E+04   0.131E+00 -.252E+02 -.293E+04   -.726E-02 -.200E-01 -.126E+01   0.172E-03 -.175E-02 -.613E-03
   -.860E+01 0.283E+02 -.291E+04   0.855E+01 -.282E+02 0.291E+04   0.407E-01 -.104E+00 0.139E+01   0.295E-02 -.259E-03 0.132E-03
   -.446E+02 0.385E+02 0.293E+04   0.446E+02 -.386E+02 -.293E+04   0.501E-01 0.123E+00 -.123E+01   -.227E-02 -.235E-02 -.145E-02
   -.194E+02 0.551E+02 -.290E+04   0.194E+02 -.553E+02 0.290E+04   -.219E-01 0.152E+00 0.102E+01   0.229E-03 -.194E-03 0.507E-03
   -.194E+02 0.779E+02 0.941E+03   0.194E+02 -.777E+02 -.941E+03   0.587E-01 -.209E+00 -.102E+00   -.646E-03 -.371E-02 -.277E-02
   0.164E+01 0.701E+02 0.291E+04   -.168E+01 -.702E+02 -.290E+04   0.279E-01 0.172E+00 -.111E+01   -.247E-03 -.191E-02 -.130E-02
   0.793E+01 0.951E+02 -.293E+04   -.797E+01 -.953E+02 0.292E+04   0.376E-01 0.193E+00 0.944E+00   -.243E-02 -.251E-02 0.982E-03
   -.416E+02 0.708E+02 0.975E+03   0.416E+02 -.708E+02 -.975E+03   0.112E-01 -.924E-01 -.149E+00   -.156E-02 -.388E-02 -.172E-02
   0.420E+02 0.468E+02 0.292E+04   -.419E+02 -.468E+02 -.292E+04   -.820E-01 0.351E-01 -.127E+01   0.236E-02 -.195E-02 -.967E-03
   0.194E+02 0.749E+02 -.290E+04   -.194E+02 -.750E+02 0.290E+04   -.296E-02 0.763E-01 0.921E+00   -.627E-03 -.295E-02 0.440E-04
   0.388E+02 0.910E+02 0.966E+03   -.389E+02 -.910E+02 -.966E+03   -.320E-01 -.101E+00 -.250E+00   0.142E-02 -.322E-02 -.163E-02
   -.261E+02 0.109E+03 -.101E+04   0.262E+02 -.109E+03 0.101E+04   -.971E-01 0.159E+00 0.184E+00   -.184E-03 -.451E-02 -.597E-03
   0.227E+02 0.950E+02 0.936E+03   -.227E+02 -.949E+02 -.936E+03   -.319E-01 -.200E+00 -.139E+00   0.774E-03 -.343E-02 -.308E-02
   0.524E+01 0.117E+03 -.937E+03   -.520E+01 -.118E+03 0.937E+03   -.340E-01 0.216E+00 0.325E+00   0.443E-03 -.255E-02 -.354E-02
   -.211E+02 -.366E+02 0.934E+03   0.212E+02 0.367E+02 -.934E+03   0.234E-01 0.778E-02 -.954E-01   0.659E-04 0.220E-02 -.322E-02
   -.333E+02 -.278E+02 0.929E+03   0.333E+02 0.278E+02 -.929E+03   0.926E-02 -.528E-02 -.131E+00   -.162E-02 0.191E-02 -.211E-02
   -.283E+02 -.203E+02 -.966E+03   0.281E+02 0.203E+02 0.965E+03   0.104E+00 -.867E-02 0.342E+00   0.866E-03 0.400E-03 -.509E-03
   0.798E+01 0.190E+02 -.959E+03   -.786E+01 -.191E+02 0.959E+03   -.127E+00 0.375E-01 0.281E+00   -.193E-02 -.485E-03 0.173E-03
   0.377E+02 0.101E+02 0.948E+03   -.377E+02 -.101E+02 -.948E+03   -.956E-02 0.103E-01 -.240E+00   0.136E-02 0.232E-02 -.327E-02
   0.242E+02 0.569E+02 -.958E+03   -.242E+02 -.568E+02 0.958E+03   0.357E-01 -.135E+00 0.252E+00   -.444E-03 -.134E-02 -.227E-02
   -.321E+01 0.254E+02 -.974E+03   0.323E+01 -.254E+02 0.974E+03   -.141E-01 -.453E-02 0.306E+00   0.145E-02 -.735E-03 -.326E-02
   -.700E+02 -.788E+02 -.784E+03   0.702E+02 0.791E+02 0.784E+03   -.170E+00 -.260E+00 0.291E+00   0.143E-02 0.312E-02 -.229E-02
   0.384E+02 -.927E+02 -.783E+03   -.385E+02 0.930E+02 0.782E+03   0.112E+00 -.315E+00 0.291E+00   -.124E-02 0.272E-02 -.394E-03
   -.605E+02 0.152E+02 0.231E+04   0.607E+02 -.152E+02 -.231E+04   -.294E+00 -.573E-02 -.276E+01   -.187E-02 -.355E-02 -.206E-03
   -.362E+02 0.878E+00 -.232E+04   0.362E+02 -.879E+00 0.231E+04   0.254E-01 -.116E-02 0.249E+01   0.554E-03 0.182E-03 -.112E-02
   0.594E+02 0.303E+02 0.230E+04   -.595E+02 -.303E+02 -.230E+04   0.274E+00 -.517E-01 -.273E+01   0.989E-03 -.299E-02 -.364E-03
   0.287E+02 0.326E+02 -.233E+04   -.287E+02 -.324E+02 0.233E+04   -.470E-01 -.876E-01 0.326E+01   -.892E-03 -.197E-02 -.113E-02
   -.322E+02 -.761E+01 0.756E+03   0.323E+02 0.776E+01 -.756E+03   -.631E-01 -.245E+00 -.371E-01   -.813E-03 -.292E-02 -.125E-02
   -.241E+02 -.206E+02 -.810E+03   0.246E+02 0.205E+02 0.810E+03   -.468E+00 0.839E-01 0.281E+00   0.656E-04 -.407E-03 -.146E-02
   0.115E+02 0.264E+02 0.713E+03   -.116E+02 -.267E+02 -.712E+03   0.502E-01 0.171E+00 -.498E+00   0.602E-03 -.861E-03 -.317E-02
   0.454E+02 -.266E+02 -.796E+03   -.455E+02 0.264E+02 0.796E+03   0.102E+00 0.151E+00 0.415E+00   -.131E-02 -.447E-04 -.242E-02
   0.276E+02 -.651E+02 -.798E+03   -.279E+02 0.651E+02 0.797E+03   0.300E+00 0.205E-02 0.264E+00   0.506E-03 0.932E-03 -.379E-02
   -.158E+02 0.695E+02 -.776E+03   0.160E+02 -.696E+02 0.776E+03   -.234E+00 0.109E+00 0.181E+00   0.343E-04 -.216E-02 -.115E-02
   0.295E+02 0.118E+03 -.785E+03   -.298E+02 -.119E+03 0.785E+03   0.302E+00 0.367E+00 0.149E+00   -.199E-03 -.359E-02 -.215E-02
   0.134E+02 0.430E+01 0.763E+03   -.134E+02 -.438E+01 -.763E+03   -.368E-01 0.922E-01 -.338E+00   0.127E-03 0.184E-02 -.143E-02
   0.165E+00 0.335E+00 -.191E+00   0.128E-12 -.718E-12 0.227E-11   -.163E+00 -.336E+00 0.294E+00   0.415E-03 0.286E-02 -.969E-01

 POSITION                                       TOTAL-FORCE (eV/Angst)
      0.00265      0.00460      2.03273        -0.024445     -0.007101      0.330457
      0.00157      0.00235      8.09986         0.000181      0.031780     -0.049071
      2.50538      0.00249      2.01455         0.023882     -0.056587      0.360867
      2.48645      0.01386      8.09048         0.013858      0.005935     -0.050459
     -0.00053      8.67545      2.02992         0.019870     -0.085578      0.264932
      0.00484      8.67088      8.11488        -0.009261     -0.007384     -0.077390
      2.50374      8.67643      2.03165        -0.014043     -0.112590      0.270255
      2.50130      8.67725      8.09901         0.008442     -0.015165     -0.062800
      8.76727      2.15790      2.02946        -0.000760      0.056602      0.283830
      8.77148      2.14223      8.14144         0.015285      0.033229     -0.053607
      1.25353      2.17274      2.02187         0.017853      0.129424      0.330855
      1.26030      2.19334      8.13140         0.012256      0.001914     -0.078202
     -0.00285      1.44433      4.07597         0.022370      0.097068     -0.123499
      3.77193      2.16142      2.03135        -0.033699      0.099451      0.307926
      3.76517      2.14442      8.14771        -0.031681      0.021573     -0.049562
      2.50178      1.44890      4.07736         0.011318      0.058841      0.107932
      6.27168      2.17140      2.04886         0.035190      0.011610      0.181529
      6.26489      2.17746      8.16811         0.016512     -0.014906     -0.076305
      5.00042      1.45188      4.09772         0.042823      0.082054     -0.064059
      7.52680      1.44774      4.09237        -0.089353      0.128040     -0.098228
      6.25572      0.73211      6.10963         0.004881      0.009284     -0.143139
      8.77465      0.71958      6.09810        -0.004303      0.005557     -0.120381
     -2.49068      4.34584      2.00000        -0.058844     -0.033816      0.415461
     -2.49825      4.33928      8.09903         0.038134      0.007592     -0.074191
     -1.27467      3.61315      4.08172         0.041340     -0.005995     -0.037599
     -0.01229      2.91771      6.11673         0.021247      0.018730     -0.114023
      5.02108      4.35795      2.00460         0.059373     -0.047802      0.309840
      5.01475      4.34826      8.11186        -0.035588     -0.008890     -0.070451
      3.76492      3.61380      4.08141        -0.045579     -0.036577     -0.015722
     -3.75488      6.52259      2.00624        -0.001774     -0.072053      0.208381
     -3.75911      6.52224      8.07598        -0.001423     -0.000649     -0.066474
     -1.25738      6.50265      2.00219         0.085084      0.072389      0.334178
     -1.26088      6.51627      8.08407         0.006306     -0.040316     -0.040267
     -2.50964      5.80144      4.05734         0.011106     -0.045483     -0.179309
      1.25473      6.50540      2.00535        -0.014470      0.036781      0.164715
      1.25337      6.49608      8.11003         0.000886     -0.042463     -0.057787
     -0.00666      5.79426      4.04866         0.082034     -0.066043     -0.020895
      3.76821      6.52071      2.02214        -0.044865      0.112258      0.337615
      3.75885      6.51165      8.09198        -0.000459     -0.044001     -0.054036
      2.50308      5.78909      4.05124        -0.092203     -0.089469     -0.055908
      1.26266      5.05597      6.10978        -0.012360     -0.038444     -0.118426
      5.01445      5.79798      4.06119        -0.018288     -0.079919     -0.145197
      6.26716      5.05754      6.07433         0.005366     -0.018136     -0.063072
     -3.76517      7.96148      4.06558         0.034909      0.088008     -0.097014
     -1.24654      7.96318      4.06972         0.003275      0.003166     -0.081939
     -2.51744      7.25359      6.07405        -0.001670      0.020365     -0.088469
      0.00877      7.22411      6.10352        -0.009359     -0.006950     -0.107710
      3.74757      7.96401      4.08996        -0.025379     -0.003014     -0.129505
      2.50329      7.23268      6.10133         0.004911      0.003771     -0.105218
      5.01359      7.23209      6.08444         0.007495     -0.029687     -0.118096
      1.20551      0.72470      6.10158         0.001490     -0.000831     -0.132177
      3.79040      0.67545      6.10811         0.030978     -0.000689     -0.127178
     -0.01227      4.33343      2.01581        -0.092095      0.032920      0.133172
     -0.03491      4.33220      8.12951         0.000182     -0.004025     -0.101964
      2.55867      4.36425      2.03158         0.074004     -0.080070      0.032168
      2.55315      4.35921      8.22025         0.009806      0.036315     -0.048745
      1.23098      3.62224      4.07808        -0.001914     -0.089002     -0.104798
      2.51691      2.89372      6.14991        -0.021985     -0.005757     -0.088053
      6.26024      3.63306      4.05078        -0.013752     -0.058553     -0.324402
      5.02978      2.87905      6.18107        -0.000655      0.022164     -0.100736
      7.53539      2.83941      6.17602        -0.017366     -0.004049     -0.078967
     -1.25803      5.11431      6.06974        -0.002537     -0.010488     -0.088831
      3.75397      5.10986      6.08540        -0.008437      0.018446     -0.091672
      1.25181      7.95850      4.07933        -0.034099      0.017216     -0.198578
    total drift:                                0.001505      0.001772      0.005518

  FREE ENERGIE OF THE ION-ELECTRON SYSTEM (eV)
  free  energy   TOTEN  =      -386.52685650 eV

  energy  without entropy=     -386.52685650  energy(sigma->0) =     -386.52685650

 total charge

[...]

 magnetization (x)

# of ion       s       p       d       tot
    1       -0.007  -0.021   0.676   0.649
    2       -0.011  -0.021   0.677   0.645
    3       -0.008  -0.020   0.674   0.646
    4       -0.013  -0.025   0.733   0.695
    5       -0.012  -0.024   0.687   0.651
    6       -0.010  -0.022   0.690   0.658
    7       -0.012  -0.023   0.673   0.638
    8       -0.006  -0.021   0.675   0.648
    9       -0.011  -0.025   0.656   0.620
   10       -0.014  -0.028   0.675   0.633
   11       -0.020  -0.035   0.733   0.678
   12       -0.019  -0.034   0.741   0.687
   13       -0.010  -0.031   0.700   0.659
   14       -0.011  -0.027   0.665   0.627
   15       -0.018  -0.030   0.730   0.681
   16       -0.016  -0.037   0.702   0.649
   17       -0.012  -0.025   0.668   0.631
   18       -0.016  -0.027   0.691   0.648
   19       -0.015  -0.039   0.721   0.667
   20       -0.013  -0.037   0.739   0.689
   21       -0.016  -0.034   0.701   0.651
   22       -0.011  -0.031   0.711   0.669
   23       -0.012  -0.026   0.702   0.664
   24       -0.017  -0.031   0.734   0.685
   25       -0.019  -0.043   0.741   0.679
   26       -0.020  -0.048   0.751   0.683
   27       -0.014  -0.026   0.680   0.641
   28       -0.016  -0.029   0.723   0.678
   29       -0.021  -0.046   0.717   0.650
   30       -0.011  -0.023   0.641   0.608
   31       -0.006  -0.023   0.685   0.656
   32       -0.010  -0.025   0.656   0.621
   33       -0.016  -0.028   0.679   0.636
   34       -0.010  -0.033   0.742   0.698
   35       -0.018  -0.034   0.695   0.643
   36       -0.015  -0.031   0.711   0.665
   37       -0.016  -0.043   0.699   0.639
   38       -0.009  -0.025   0.684   0.650
   39       -0.017  -0.028   0.668   0.624
   40       -0.016  -0.043   0.702   0.644
   41       -0.022  -0.049   0.748   0.677
   42       -0.010  -0.033   0.733   0.690
   43       -0.019  -0.037   0.716   0.660
   44       -0.008  -0.029   0.697   0.660
   45       -0.011  -0.029   0.669   0.629
   46       -0.014  -0.031   0.712   0.667
   47       -0.014  -0.032   0.683   0.637
   48       -0.008  -0.027   0.679   0.644
   49       -0.012  -0.032   0.694   0.650
   50       -0.011  -0.028   0.694   0.655
   51        0.006  -0.010   2.802   2.798
   52        0.004  -0.015   2.758   2.747
   53        0.013  -0.011   2.893   2.894
   54        0.013  -0.012   2.880   2.882
   55        0.012  -0.011   2.891   2.891
   56        0.012  -0.011   2.896   2.897
   57        0.004  -0.019   2.745   2.729
   58       -0.004  -0.029   2.670   2.637
   59        0.007  -0.012   2.836   2.831
   60       -0.002  -0.023   2.679   2.654
   61        0.004  -0.016   2.766   2.754
   62        0.007  -0.013   2.803   2.798
   63        0.005  -0.016   2.787   2.775
   64        0.011  -0.010   2.850   2.851
tot         -0.578  -1.736  74.205  71.891

 BZINTS: Fermi energy:  0.284643;612.000000 electrons
         Band energy:***********;  BLOECHL correction: -0.006954