 vasp.5.4.4.18Apr17-6-g9f103f2a35 (build Dec 15 2018 21:27:11) complex

 executed on             LinuxIFC date 2022.02.17  20:38:45

 INCAR:
 POTCAR:    PAW_PBE Ni 02Aug2007
 POTCAR:    PAW_PBE O 08Apr2002

 POTCAR:    PAW_PBE Ni 02Aug2007
   VRHFIN =Ni:

   TITEL  = PAW_PBE Ni 02Aug2007
   POMASS =   58.690; ZVAL   =   10.000    mass and valenz
   ENMAX  =  269.532; ENMIN  =  202.149 eV

 POTCAR:    PAW_PBE O 08Apr2002
   VRHFIN =O: s2p4

   TITEL  = PAW_PBE O 08Apr2002
   POMASS =   16.000; ZVAL   =    6.000    mass and valenz
   ENMAX  =  400.000; ENMIN  =  300.000 eV

 Optimization of the real space projectors (new method)

 maximal supplied QI-value         = 16.25
 optimisation between [QCUT,QGAM] = [ 11.54, 23.24] = [ 37.28,151.24] Ry
 Optimized for a Real-space Cutoff    1.45 Angstroem

   l    n(q)    QCUT    max X(q) W(low)/X(q) W(high)/X(q)  e(spline)
   2      9    11.539    60.317    0.19E-03    0.47E-04    0.16E-06
   2      9    11.539    55.921    0.19E-03    0.48E-04    0.16E-06
   0     10    11.539    51.690    0.80E-04    0.50E-04    0.24E-06
   0     10    11.539    30.015    0.73E-04    0.45E-04    0.22E-06
   1     10    11.539    18.849    0.87E-04    0.16E-03    0.71E-07
   1     10    11.539    14.624    0.73E-04    0.13E-03    0.64E-07
 Optimization of the real space projectors (new method)

 maximal supplied QI-value         = 24.76
 optimisation between [QCUT,QGAM] = [ 11.64, 23.27] = [ 37.91,151.63] Ry
 Optimized for a Real-space Cutoff    1.14 Angstroem

   l    n(q)    QCUT    max X(q) W(low)/X(q) W(high)/X(q)  e(spline)
   0      8    11.635    20.381    0.10E-03    0.33E-03    0.24E-06
   0      8    11.635    15.268    0.11E-03    0.35E-03    0.26E-06
   1      7    11.635     5.964    0.24E-03    0.31E-03    0.30E-06
   1      7    11.635     5.382    0.22E-03    0.25E-03    0.26E-06
  PAW_PBE Ni 02Aug2007                  :
  PAW_PBE O 08Apr2002                   :

 POSCAR: POSCAR
  positions in direct lattice
  velocities in cartesian coordinates
 exchange correlation table for  LEXCH =        8
   RHO(1)=    0.500       N(1)  =     2000
   RHO(2)=  100.500       N(2)  =     4000

 VTST: version 3.2, (02/03/18)

 CHAIN: initializing optimizer

 OPT: Using VASP Dynamics algorithm
 CHAIN: Read ICHAIN            0

 POSCAR: POSCAR
  positions in direct lattice
  velocities in cartesian coordinates

 ion  position               nearest neighbor table
   1  0.113  0.226  0.095-  15 2.49  19 2.49   3 2.49   5 2.49  13 2.49  17 2.49  21 2.49  49 2.49
                            61 2.49
   2  0.111  0.228  0.383-  65 1.84  14 2.43  18 2.43  20 2.47  22 2.49  62 2.50  24 2.52   4 2.52
                             6 2.55  50 2.55
   3  0.196  0.142  0.191-  24 2.44   4 2.44   8 2.44   5 2.49  49 2.49   1 2.49   7 2.49  15 2.49
                            19 2.49  23 2.49  51 2.49  63 2.49
   4  0.030  0.059  0.285-  62 2.43   3 2.44  63 2.44  15 2.44  24 2.49   8 2.49  52 2.49  20 2.49
                            16 2.50  64 2.50   2 2.52  50 2.52
   5  0.363  0.226  0.095-   3 2.49  23 2.49   7 2.49   9 2.49   1 2.49  21 2.49  25 2.49  49 2.49
                            53 2.49
   6  0.367  0.227  0.383-  65 1.84  10 2.43  26 2.43  28 2.47  54 2.49  22 2.49   8 2.52  24 2.53
                            50 2.55   2 2.55
   7  0.446  0.142  0.191-   8 2.44  12 2.44  28 2.47   9 2.49  53 2.49   5 2.49  11 2.49   3 2.49
                            23 2.49  51 2.49  27 2.49  55 2.49
   8  0.279  0.059  0.285-  54 2.43   3 2.44  51 2.44   7 2.44  24 2.49   4 2.49  52 2.49  28 2.49
                            56 2.50  12 2.50   6 2.52  50 2.52
   9  0.613  0.226  0.095-   7 2.49  27 2.49  11 2.49  13 2.49   5 2.49  25 2.49  29 2.49  53 2.49
                            57 2.49
  10  0.611  0.227  0.383-  68 1.84   6 2.43  26 2.43  28 2.47  54 2.49  30 2.49  12 2.52  32 2.53
                            58 2.55  14 2.55
  11  0.696  0.142  0.191-  32 2.44  16 2.44  12 2.44  13 2.49  57 2.49   9 2.49  15 2.49   7 2.49
                            27 2.49  55 2.49  31 2.49  59 2.49
  12  0.530  0.059  0.285-  54 2.43  11 2.44  55 2.44   7 2.44  16 2.49  32 2.49  60 2.49  28 2.49
                            56 2.50   8 2.50  10 2.52  58 2.53
  13  0.863  0.226  0.095-  11 2.49  31 2.49  15 2.49   9 2.49   1 2.49  29 2.49  17 2.49  57 2.49
                            61 2.49
  14  0.867  0.228  0.383-  68 1.84   2 2.43  18 2.43  20 2.47  30 2.49  62 2.49  16 2.52  32 2.52
                            58 2.55  10 2.55
  15  0.946  0.142  0.191-   4 2.44  16 2.44  20 2.47   1 2.49  61 2.49  13 2.49   3 2.49  11 2.49
                            31 2.49  59 2.49  19 2.49  63 2.49
  16  0.779  0.059  0.285-  62 2.43  11 2.44  59 2.44  15 2.44  32 2.49  12 2.49  60 2.49  20 2.49
                             4 2.50  64 2.50  14 2.52  58 2.53
  17  0.113  0.476  0.095-  31 2.49  35 2.49  19 2.49  21 2.49  29 2.49  13 2.49  33 2.49   1 2.49
                            37 2.49
  18  0.111  0.472  0.383-  67 1.84   2 2.43  14 2.43  20 2.47  22 2.49  30 2.49  40 2.52  36 2.52
                            38 2.55  34 2.55
  19  0.196  0.392  0.191-  40 2.44  24 2.44  20 2.47  21 2.49   1 2.49  17 2.49  31 2.49  23 2.49
                            15 2.49  35 2.49  39 2.49   3 2.49
  20  0.030  0.309  0.286-   2 2.47  14 2.47  18 2.47  19 2.47  15 2.47  31 2.47  40 2.49  36 2.49
                            24 2.49   4 2.49  32 2.49  16 2.49
  21  0.363  0.476  0.095-  19 2.49  39 2.49  23 2.49  25 2.49  17 2.49   5 2.49  37 2.49   1 2.49
                            41 2.49
  22  0.363  0.476  0.377-  24 2.43  44 2.43  40 2.43   2 2.49  18 2.49  42 2.49  26 2.49   6 2.49
                            38 2.50
  23  0.446  0.392  0.191-  24 2.44  44 2.44  28 2.47  25 2.49   5 2.49  21 2.49  19 2.49  27 2.49
                             7 2.49  39 2.49  43 2.49   3 2.49
  24  0.279  0.309  0.285-  22 2.43   3 2.44  23 2.44  19 2.44   8 2.49   4 2.49  28 2.49  20 2.49
                            44 2.50  40 2.50   2 2.52   6 2.53
  25  0.613  0.476  0.095-  23 2.49  43 2.49  27 2.49  29 2.49  21 2.49   9 2.49  41 2.49   5 2.49
                            45 2.49
  26  0.611  0.472  0.383-  66 1.84   6 2.43  10 2.43  28 2.47  22 2.49  30 2.49  44 2.53  48 2.53
                            42 2.55  46 2.55
  27  0.696  0.392  0.191-  48 2.44  32 2.44  28 2.47  29 2.49   9 2.49  25 2.49  23 2.49  31 2.49
                            11 2.49  43 2.49  47 2.49   7 2.49
  28  0.529  0.309  0.286-   6 2.47  10 2.47  26 2.47   7 2.47  27 2.47  23 2.47  24 2.49   8 2.49
                            12 2.49  48 2.49  32 2.49  44 2.49
  29  0.863  0.476  0.095-  27 2.49  47 2.49  31 2.49  25 2.49  17 2.49  13 2.49  33 2.49  45 2.49
                             9 2.49
  30  0.863  0.476  0.377-  32 2.43  48 2.43  36 2.43  14 2.49  18 2.49  46 2.49  26 2.49  10 2.49
                            34 2.49
  31  0.946  0.392  0.191-  36 2.44  32 2.44  20 2.47  17 2.49  13 2.49  29 2.49  27 2.49  19 2.49
                            15 2.49  35 2.49  11 2.49  47 2.49
  32  0.779  0.309  0.285-  30 2.43  11 2.44  31 2.44  27 2.44  16 2.49  12 2.49  28 2.49  20 2.49
                            48 2.50  36 2.50  14 2.52  10 2.53
  33  0.113  0.726  0.095-  47 2.49  51 2.49  35 2.49  37 2.49  45 2.49  29 2.49  49 2.49  17 2.49
                            53 2.49
  34  0.111  0.728  0.383-  67 1.84  46 2.43  50 2.43  52 2.47  54 2.49  30 2.49  36 2.52  56 2.52
                            18 2.55  38 2.55
  35  0.196  0.642  0.191-  56 2.44  36 2.44  40 2.44  37 2.49  17 2.49  33 2.49  47 2.49  39 2.49
                            31 2.49  51 2.49  55 2.49  19 2.49
  36  0.030  0.559  0.285-  30 2.43  35 2.44  31 2.44  47 2.44  56 2.49  40 2.49  20 2.49  52 2.49
                            48 2.50  32 2.50  34 2.52  18 2.52
  37  0.363  0.726  0.095-  35 2.49  55 2.49  39 2.49  41 2.49  33 2.49  21 2.49  53 2.49  17 2.49
                            57 2.49
  38  0.367  0.728  0.383-  67 1.84  42 2.43  58 2.43  60 2.47  54 2.49  22 2.50  40 2.52  56 2.53
                            18 2.55  34 2.55
  39  0.446  0.642  0.191-  40 2.44  44 2.44  60 2.47  41 2.49  21 2.49  37 2.49  35 2.49  43 2.49
                            23 2.49  55 2.49  59 2.49  19 2.49
  40  0.279  0.559  0.285-  22 2.43  35 2.44  19 2.44  39 2.44  56 2.49  36 2.49  60 2.49  20 2.49
                            44 2.50  24 2.50  18 2.52  38 2.52
  41  0.613  0.726  0.095-  39 2.49  59 2.49  43 2.49  45 2.49  37 2.49  25 2.49  57 2.49  21 2.49
                            61 2.49
  42  0.611  0.727  0.383-  66 1.84  38 2.43  58 2.43  60 2.47  22 2.49  62 2.50  44 2.52  64 2.53
                            26 2.55  46 2.55
  43  0.696  0.642  0.191-  64 2.44  48 2.44  44 2.44  45 2.49  25 2.49  41 2.49  39 2.49  47 2.49
                            27 2.49  59 2.49  63 2.49  23 2.49
  44  0.530  0.559  0.285-  22 2.43  43 2.44  23 2.44  39 2.44  48 2.49  64 2.49  28 2.49  60 2.49
                            24 2.50  40 2.50  42 2.52  26 2.53
  45  0.863  0.726  0.095-  43 2.49  63 2.49  47 2.49  41 2.49  33 2.49  29 2.49  49 2.49  61 2.49
                            25 2.49
  46  0.867  0.727  0.383-  66 1.84  34 2.43  50 2.43  52 2.47  62 2.49  30 2.49  48 2.52  64 2.52
                            42 2.55  26 2.55
  47  0.946  0.642  0.191-  36 2.44  48 2.44  52 2.47  33 2.49  29 2.49  45 2.49  43 2.49  35 2.49
                            31 2.49  51 2.49  27 2.49  63 2.49
  48  0.779  0.559  0.285-  30 2.43  43 2.44  27 2.44  47 2.44  44 2.49  64 2.49  28 2.49  52 2.49
                            32 2.50  36 2.50  46 2.52  26 2.53
  49  0.113  0.976  0.095-  63 2.49   3 2.49  51 2.49  61 2.49  53 2.49   1 2.49   5 2.49  33 2.49
                            45 2.49
  50  0.111  0.972  0.383-  65 1.84  34 2.43  46 2.43  52 2.47  62 2.49  54 2.49   4 2.52   8 2.52
                             6 2.55   2 2.55
  51  0.196  0.892  0.191-   8 2.44  56 2.44  52 2.47  53 2.49  33 2.49  49 2.49  55 2.49  63 2.49
                            35 2.49  47 2.49   3 2.49   7 2.49
  52  0.029  0.809  0.286-  34 2.47  50 2.47  46 2.47  47 2.47  63 2.47  51 2.47   8 2.49  64 2.49
                             4 2.49  36 2.49  56 2.49  48 2.49
  53  0.363  0.976  0.095-  51 2.49   7 2.49  55 2.49  49 2.49  57 2.49   5 2.49   9 2.49  33 2.49
                            37 2.49
  54  0.363  0.976  0.377-  56 2.43  12 2.43   8 2.43  34 2.49  38 2.49   6 2.49  10 2.49  50 2.49
                            58 2.50
  55  0.446  0.892  0.191-  12 2.44  56 2.44  60 2.47  57 2.49  37 2.49  53 2.49  59 2.49  51 2.49
                            11 2.49  39 2.49   7 2.49  35 2.49
  56  0.279  0.809  0.285-  54 2.43  35 2.44  51 2.44  55 2.44  40 2.49  36 2.49  60 2.49  52 2.49
                             8 2.50  12 2.50  34 2.52  38 2.53
  57  0.613  0.976  0.095-  55 2.49  11 2.49  59 2.49  53 2.49  61 2.49   9 2.49  13 2.49  37 2.49
                            41 2.49
  58  0.611  0.972  0.383-  68 1.84  38 2.43  42 2.43  60 2.47  62 2.49  54 2.50  12 2.53  16 2.53
                            10 2.55  14 2.55
[...]
   0.111E+00 -.420E+01 0.118E+04   -.817E-01 0.422E+01 -.118E+04   0.385E-02 -.443E-01 -.148E+00   -.381E-01 0.687E-01 0.348E-01
   0.407E+01 -.231E+01 -.864E+03   -.406E+01 0.225E+01 0.863E+03   -.444E-01 0.266E-01 0.414E+00   0.338E-01 0.295E-01 -.323E-01
   0.775E-01 0.197E+00 0.319E+04   -.485E-02 -.242E+00 -.319E+04   -.327E-02 0.486E-01 -.144E+01   -.685E-01 -.203E-01 0.235E-01
   0.146E+00 0.112E+03 -.291E+04   -.113E+00 -.114E+03 0.291E+04   0.423E-04 0.193E+01 0.481E+00   -.327E-01 -.786E-02 -.176E-01
   0.367E+01 0.206E+01 0.118E+04   -.366E+01 -.208E+01 -.118E+04   0.397E-01 0.198E-01 -.152E+00   -.773E-01 -.152E-01 0.470E-01
   0.130E+00 0.492E-01 -.890E+03   -.141E+00 -.517E-01 0.891E+03   -.515E-02 0.408E-02 -.119E+01   0.926E-02 -.162E-02 -.285E-01
   0.618E-01 -.171E-01 0.319E+04   0.138E-01 0.131E-01 -.319E+04   0.448E-02 0.132E-02 -.129E+01   -.782E-01 0.292E-02 0.123E-01
   -.375E-01 -.132E+00 -.292E+04   0.302E-01 0.165E+00 0.292E+04   -.348E-03 -.500E-02 0.304E+01   0.650E-02 -.263E-01 -.139E-01
   -.367E+01 0.203E+01 0.118E+04   0.377E+01 -.206E+01 -.118E+04   -.428E-01 0.234E-01 -.144E+00   -.210E-01 -.107E-01 0.634E-01
   -.178E-01 0.468E+01 -.863E+03   0.654E-01 -.458E+01 0.863E+03   0.570E-03 -.552E-01 0.413E+00   -.462E-01 -.285E-01 0.168E-01
   -.679E-01 0.228E+00 0.319E+04   0.542E-02 -.239E+00 -.319E+04   -.342E-02 0.445E-01 -.144E+01   0.642E-01 -.518E-01 0.485E-03
   -.159E+00 0.113E+03 -.291E+04   0.125E+00 -.115E+03 0.291E+04   -.345E-03 0.192E+01 0.480E+00   0.358E-01 0.144E-01 0.192E-01
   0.355E+01 0.211E+01 0.118E+04   -.370E+01 -.213E+01 -.118E+04   0.381E-01 0.200E-01 -.147E+00   0.795E-01 -.276E-01 -.265E-02
   -.111E+00 -.119E+00 -.890E+03   0.118E+00 0.116E+00 0.891E+03   -.451E-02 0.479E-02 -.119E+01   -.601E-02 0.116E-02 0.342E-01
   -.706E-01 0.766E-01 0.319E+04   -.136E-01 -.300E-02 -.319E+04   0.293E-02 0.894E-03 -.129E+01   0.827E-01 -.728E-01 0.160E-01
   0.419E-01 -.101E+00 -.292E+04   -.328E-01 0.757E-01 0.292E+04   -.420E-03 -.145E-02 0.304E+01   -.103E-01 0.295E-01 0.134E-01
   -.356E+01 0.213E+01 0.118E+04   0.362E+01 -.215E+01 -.118E+04   -.444E-01 0.276E-01 -.147E+00   0.186E-01 -.339E-01 -.260E-01
   0.305E-01 0.464E+01 -.864E+03   -.720E-01 -.460E+01 0.863E+03   -.395E-03 -.541E-01 0.414E+00   0.428E-01 0.290E-01 -.111E-01
   0.110E+00 -.440E-01 0.319E+04   -.218E+00 0.118E+00 -.319E+04   0.385E-01 -.243E-01 -.141E+01   0.544E-01 -.429E-01 -.297E-02
   0.975E+02 -.561E+02 -.291E+04   -.991E+02 0.570E+02 0.291E+04   0.168E+01 -.969E+00 0.476E+00   -.233E-01 0.136E-01 0.243E-01
   0.108E-01 0.728E-01 0.118E+04   0.859E-02 -.320E-01 -.118E+04   -.201E-02 -.561E-02 -.233E+00   -.118E-01 -.406E-01 -.523E-02
   -.399E+01 -.228E+01 -.864E+03   0.393E+01 0.228E+01 0.863E+03   0.471E-01 0.285E-01 0.412E+00   0.618E-02 -.404E-01 0.158E-01
   -.111E+00 -.125E+00 0.319E+04   0.226E+00 0.129E+00 -.319E+04   -.362E-01 -.193E-01 -.143E+01   -.641E-01 0.219E-01 0.453E-02
   -.974E+02 -.562E+02 -.291E+04   0.991E+02 0.571E+02 0.291E+04   -.167E+01 -.964E+00 0.473E+00   -.393E-01 0.130E-01 -.268E-02
   -.376E-01 -.420E+01 0.118E+04   0.799E-01 0.428E+01 -.118E+04   0.102E-02 -.395E-01 -.146E+00   -.460E-01 0.362E-02 0.552E-01
   0.403E+01 -.237E+01 -.864E+03   -.395E+01 0.236E+01 0.863E+03   -.444E-01 0.264E-01 0.414E+00   -.213E-01 -.298E-01 -.110E-01
   0.211E+00 -.128E+00 0.319E+04   -.209E+00 0.122E+00 -.319E+04   0.363E-01 -.238E-01 -.141E+01   -.533E-01 0.352E-01 0.808E-02
   0.976E+02 -.564E+02 -.291E+04   -.992E+02 0.574E+02 0.291E+04   0.168E+01 -.968E+00 0.477E+00   0.387E-01 -.195E-01 -.351E-02
   -.107E-02 0.347E-01 0.118E+04   -.367E-02 -.276E-01 -.118E+04   -.294E-02 -.441E-02 -.237E+00   0.120E-01 -.778E-02 0.838E-01
   -.411E+01 -.241E+01 -.864E+03   0.405E+01 0.237E+01 0.864E+03   0.468E-01 0.282E-01 0.413E+00   0.230E-02 0.133E-01 0.269E-01
   -.210E+00 -.533E-01 0.319E+04   0.201E+00 0.112E+00 -.319E+04   -.387E-01 -.215E-01 -.142E+01   0.629E-01 -.289E-01 0.127E-02
   -.976E+02 -.563E+02 -.291E+04   0.992E+02 0.572E+02 0.291E+04   -.168E+01 -.969E+00 0.481E+00   0.239E-01 -.224E-01 0.186E-01
   0.236E-01 -.407E+01 0.118E+04   -.788E-01 0.422E+01 -.118E+04   0.358E-02 -.467E-01 -.149E+00   0.459E-01 -.654E-01 0.104E-01
   0.405E+01 -.231E+01 -.864E+03   -.401E+01 0.228E+01 0.863E+03   -.443E-01 0.269E-01 0.415E+00   0.131E-01 0.709E-03 0.534E-01
   -.417E-01 0.190E+00 0.319E+04   -.273E-02 -.252E+00 -.319E+04   -.384E-02 0.460E-01 -.143E+01   0.475E-01 -.391E-02 0.160E-02
   0.152E-02 0.112E+03 -.291E+04   -.337E-01 -.114E+03 0.291E+04   0.414E-03 0.193E+01 0.484E+00   0.324E-01 0.381E-02 0.129E-01
   0.357E+01 0.211E+01 0.118E+04   -.368E+01 -.214E+01 -.118E+04   0.404E-01 0.217E-01 -.154E+00   0.409E-01 -.633E-03 0.478E-02
   0.855E-01 0.894E-01 -.890E+03   -.801E-01 -.102E+00 0.891E+03   -.455E-02 0.421E-02 -.119E+01   -.531E-02 0.850E-02 0.640E-01
   -.701E-01 0.458E-02 0.319E+04   0.145E-01 0.624E-02 -.319E+04   0.346E-02 0.629E-03 -.129E+01   0.531E-01 -.108E-01 -.433E-02
   -.314E-01 -.125E+00 -.292E+04   0.884E-01 0.127E+00 0.292E+04   -.414E-02 -.401E-02 0.304E+01   -.553E-01 0.347E-02 0.268E-01
   -.368E+01 0.203E+01 0.118E+04   0.375E+01 -.209E+01 -.118E+04   -.412E-01 0.224E-01 -.146E+00   -.120E-02 0.143E-01 -.187E-01
   -.626E-01 0.468E+01 -.863E+03   0.662E-01 -.462E+01 0.863E+03   0.314E-04 -.545E-01 0.414E+00   -.244E-02 0.265E-02 0.344E-01
   0.433E-01 0.105E+00 0.319E+04   0.260E-02 -.245E+00 -.319E+04   -.254E-02 0.468E-01 -.144E+01   -.435E-01 0.775E-01 0.938E-02
   0.290E-01 0.113E+03 -.291E+04   0.265E-02 -.115E+03 0.291E+04   0.784E-03 0.193E+01 0.480E+00   -.303E-01 0.176E-02 0.503E-02
   0.366E+01 0.205E+01 0.118E+04   -.371E+01 -.214E+01 -.118E+04   0.372E-01 0.191E-01 -.147E+00   -.260E-01 0.510E-01 0.450E-01
   -.951E-01 -.368E-01 -.890E+03   0.919E-01 0.466E-01 0.891E+03   -.469E-02 0.445E-02 -.119E+01   0.382E-02 -.124E-01 -.164E-02
   0.694E-01 -.759E-01 0.319E+04   -.135E-01 -.114E-01 -.319E+04   0.364E-02 0.142E-02 -.129E+01   -.571E-01 0.858E-01 0.164E-01
   0.154E-01 -.312E-01 -.292E+04   -.702E-01 0.428E-01 0.292E+04   0.158E-02 -.275E-03 0.304E+01   0.530E-01 -.926E-02 -.172E-01
   -.353E+01 0.210E+01 0.118E+04   0.362E+01 -.219E+01 -.118E+04   -.463E-01 0.296E-01 -.147E+00   -.139E-01 0.380E-01 0.711E-01
   0.486E-01 0.469E+01 -.864E+03   -.497E-01 -.462E+01 0.863E+03   0.481E-03 -.551E-01 0.414E+00   0.397E-02 -.521E-02 0.323E-01
   0.729E-01 0.750E-01 -.231E+04   -.964E-01 -.528E-01 0.234E+04   0.109E-01 -.161E-02 -.282E+02   0.129E-01 -.197E-01 -.192E-01
   -.155E+00 -.812E-01 -.231E+04   0.137E+00 0.104E+00 0.234E+04   -.104E-01 -.146E-01 -.282E+02   0.272E-01 -.706E-02 -.110E-01
   0.154E+00 -.194E-01 -.231E+04   -.139E+00 0.237E-01 0.234E+04   0.126E-01 -.831E-02 -.282E+02   -.284E-01 0.645E-02 -.112E-03
   -.833E-01 -.109E+00 -.231E+04   0.104E+00 0.110E+00 0.234E+04   -.105E-01 -.166E-01 -.282E+02   -.133E-01 0.149E-01 0.161E-01
   0.116E-01 0.517E-01 0.119E+03   0.663E-12 -.246E-11 -.637E-11   -.959E-02 -.509E-01 -.120E+03   -.246E-02 -.359E-02 0.871E+00

 POSITION                                       TOTAL-FORCE (eV/Angst)
     -0.00000      1.94796      2.00000        -0.014628      0.007242      0.271498
     -0.02853      1.96442      8.07221         0.033407     -0.018013      0.026014
      1.24593      1.22862      4.03457         0.004854     -0.004986     -0.261131
      0.00233      0.51054      6.00853        -0.001656     -0.003244     -0.020676
      2.49184      1.94796      2.00000         0.016099      0.009129      0.276373
      2.52064      1.96339      8.07274        -0.033099     -0.014355      0.026578
      3.73777      1.22862      4.03457        -0.003584      0.039492     -0.260898
      2.48925      0.51018      6.00860         0.005406     -0.001080     -0.014417
      4.98369      1.94796      2.00000        -0.013454      0.005191      0.271626
      4.95506      1.96337      8.07293         0.031694     -0.012586      0.016082
      6.22962      1.22862      4.03457         0.004888     -0.005840     -0.259281
      4.98644      0.51017      6.00893        -0.003800     -0.000794     -0.021107
      7.47553      1.94796      2.00000         0.013175      0.004927      0.276875
      7.50482      1.96429      8.07241        -0.029119     -0.016081      0.024196
      8.72146      1.22862      4.03457        -0.004814      0.040844     -0.262007
      7.47308      0.51049      6.00881         0.003934     -0.001517     -0.016152
     -1.24593      4.10596      2.00000         0.000885     -0.016637      0.285036
     -1.24564      4.07284      8.07252         0.000937      0.030872      0.031880
      0.00000      3.38662      4.03457        -0.034914     -0.017931     -0.261241
     -1.24567      2.66739      6.04531        -0.006252      0.000070     -0.032555
      1.24592      4.10596      2.00000         0.001816      0.000364      0.190356
      1.24591      4.10493      7.95911        -0.001233      0.001916      0.070139
      2.49185      3.38662      4.03457         0.033338     -0.020423     -0.258136
      1.24616      2.66397      6.00845         0.001969      0.007471     -0.032435
      3.73776      4.10596      2.00000        -0.001691     -0.018360      0.284970
      3.73765      4.07179      8.07350         0.001280      0.026207      0.022683
      4.98369      3.38662      4.03457        -0.035937     -0.018201     -0.258308
      3.73779      2.66653      6.04561        -0.003693      0.002921     -0.032746
      6.22961      4.10596      2.00000         0.001357      0.001777      0.191599
      6.22974      4.10511      7.95915        -0.001569      0.003185      0.067848
      7.47554      3.38662      4.03457         0.033154     -0.021879     -0.258172
      6.22965      2.66389      6.00867         0.000905      0.006898     -0.033584
     -2.49185      6.26396      2.00000        -0.014742      0.006902      0.271671
     -2.52079      6.28029      8.07222         0.033256     -0.017606      0.023756
     -1.24592      5.54462      4.03457         0.005526     -0.005389     -0.259846
     -2.48948      4.82649      6.00860        -0.002355     -0.001509     -0.020741
     -0.00000      6.26396      2.00000         0.015187      0.006059      0.276331
      0.02877      6.28016      8.07284        -0.031205     -0.018529      0.025529
      1.24593      5.54462      4.03457        -0.002685      0.041493     -0.261817
     -0.00233      4.82663      6.00869         0.004205     -0.002382     -0.015083
      2.49184      6.26396      2.00000        -0.014382      0.006092      0.271166
      2.46302      6.27943      8.07316         0.028868     -0.011690      0.016964
      3.73777      5.54462      4.03457         0.004293     -0.005061     -0.260151
      2.49455      4.82619      6.00894        -0.003417     -0.001812     -0.021887
      4.98369      6.26396      2.00000         0.015169      0.008300      0.275925
      5.01222      6.27972      8.07246        -0.025207     -0.012176      0.024822
      6.22962      5.54462      4.03457        -0.005642      0.040225     -0.260819
      4.98101      4.82609      6.00886         0.005559      0.000268     -0.016525
     -3.73777      8.42196      2.00000        -0.000805     -0.019882      0.284897
     -3.73808      8.38848      8.07253         0.000571      0.031628      0.034261
     -2.49184      7.70262      4.03457        -0.035326     -0.017740     -0.261163
     -3.73801      6.98308      6.04544        -0.004527      0.000218     -0.033081
     -1.24593      8.42196      2.00000         0.001011      0.000735      0.192153
     -1.24607      8.42094      7.95903        -0.002505      0.002296      0.068134
      0.00000      7.70262      4.03457         0.034691     -0.021582     -0.258581
     -1.24594      6.97995      6.00845         0.001184      0.007205     -0.032077
      1.24592      8.42196      2.00000        -0.000202     -0.015651      0.284721
      1.24626      8.38830      8.07339         0.002123      0.029289      0.025048
      2.49185      7.70262      4.03457        -0.036617     -0.019274     -0.258769
      1.24598      6.98296      6.04568        -0.004095      0.001887     -0.032515
      3.73776      8.42196      2.00000         0.002418     -0.000006      0.190089
      3.73796      8.42116      7.95909        -0.000186      0.002023      0.069857
      4.98369      7.70262      4.03457         0.031552     -0.021564     -0.257541
      3.73757      6.97986      6.00871         0.003341      0.007292     -0.034168
      1.24550      1.22844      9.17493         0.000311      0.000935     -0.034361
      3.73794      5.54388      9.17393        -0.002007      0.000816     -0.016912
     -1.24627      5.54458      9.17458        -0.000227      0.002418     -0.030600
      6.23052      1.22872      9.17401        -0.002784     -0.000806     -0.019594
    total drift:                               -0.000417     -0.002781      0.027926

  FREE ENERGIE OF THE ION-ELECTRON SYSTEM (eV)
  free  energy   TOTEN  =      -376.24855100 eV

  energy  without entropy=     -376.24855100  energy(sigma->0) =     -376.24855100

 stress matrix after NEB project (eV)
    -33.97747     -0.07308     -0.01082
     -0.07308    -33.80338      0.07343
     -0.01082      0.07343     -7.70184
  FORCES: max atom, RMS     0.070176    0.028300
  FORCE total and by dimension    0.233370    0.070139
  Stress total and by dimension   48.543558   33.977472
 writing wavefunctions

 total charge

[...]

 magnetization (x)

# of ion       s       p       d       tot
    1       -0.009  -0.025   0.709   0.676
    2       -0.003  -0.014   0.595   0.579
    3       -0.006  -0.025   0.778   0.748
    4       -0.006  -0.025   0.742   0.712
    5       -0.008  -0.025   0.703   0.670
    6       -0.003  -0.014   0.596   0.579
    7       -0.006  -0.024   0.748   0.717
    8       -0.006  -0.025   0.743   0.713
    9       -0.009  -0.025   0.710   0.676
   10       -0.003  -0.014   0.594   0.577
   11       -0.006  -0.025   0.778   0.748
   12       -0.006  -0.025   0.740   0.709
   13       -0.008  -0.025   0.707   0.674
   14       -0.003  -0.014   0.595   0.579
   15       -0.006  -0.024   0.749   0.719
   16       -0.006  -0.025   0.743   0.712
   17       -0.008  -0.025   0.707   0.673
   18       -0.003  -0.014   0.597   0.580
   19       -0.006  -0.024   0.749   0.719
   20       -0.006  -0.021   0.624   0.597
   21       -0.000  -0.025   0.750   0.725
   22       -0.011  -0.016   0.781   0.754
   23       -0.005  -0.024   0.744   0.715
   24       -0.006  -0.025   0.739   0.708
   25       -0.008  -0.025   0.704   0.671
   26       -0.003  -0.014   0.596   0.579
   27       -0.006  -0.024   0.748   0.718
   28       -0.006  -0.021   0.623   0.596
   29       -0.000  -0.025   0.751   0.726
   30       -0.011  -0.016   0.783   0.755
   31       -0.005  -0.024   0.746   0.717
   32       -0.006  -0.024   0.738   0.708
   33       -0.008  -0.025   0.710   0.677
   34       -0.003  -0.014   0.596   0.579
   35       -0.006  -0.025   0.778   0.747
   36       -0.006  -0.025   0.742   0.711
   37       -0.008  -0.025   0.704   0.671
   38       -0.003  -0.014   0.595   0.578
   39       -0.006  -0.024   0.748   0.717
   40       -0.006  -0.025   0.743   0.712
   41       -0.009  -0.025   0.708   0.674
   42       -0.003  -0.014   0.594   0.577
   43       -0.006  -0.025   0.778   0.747
   44       -0.006  -0.025   0.741   0.710
   45       -0.008  -0.025   0.704   0.671
   46       -0.003  -0.014   0.596   0.580
   47       -0.006  -0.024   0.748   0.718
   48       -0.006  -0.025   0.743   0.712
   49       -0.008  -0.025   0.706   0.673
   50       -0.003  -0.014   0.598   0.582
   51       -0.006  -0.024   0.748   0.718
   52       -0.006  -0.021   0.623   0.596
   53       -0.000  -0.025   0.751   0.726
   54       -0.011  -0.016   0.783   0.756
   55       -0.005  -0.024   0.744   0.715
   56       -0.006  -0.025   0.739   0.708
   57       -0.008  -0.025   0.706   0.673
   58       -0.003  -0.014   0.596   0.579
   59       -0.006  -0.024   0.748   0.718
   60       -0.006  -0.021   0.624   0.597
   61       -0.000  -0.025   0.750   0.725
   62       -0.011  -0.016   0.781   0.754
   63       -0.005  -0.024   0.745   0.716
   64       -0.006  -0.024   0.739   0.709
   65        0.002   0.120   0.000   0.122
   66        0.002   0.119   0.000   0.122
   67        0.002   0.120   0.000   0.122
   68        0.002   0.119   0.000   0.122
tot         -0.359  -0.922  45.221  43.941

 BZINTS: Fermi energy:  0.474715;664.000000 electrons
         Band energy:***********;  BLOECHL correction: -0.054361