 vasp.5.4.4.18Apr17-6-g9f103f2a35 (build Dec 15 2018 21:27:54) gamma-only

 executed on             LinuxIFC date 2022.03.05  23:04:35

 INCAR:
 POTCAR:    PAW_PBE Fe 06Sep2000
 POTCAR:    PAW_PBE Ni 02Aug2007
 POTCAR:    PAW_PBE O 08Apr2002
 POTCAR:    PAW_PBE H 15Jun2001

 POTCAR:    PAW_PBE Fe 06Sep2000
   VRHFIN =Fe:  d7 s1

   TITEL  = PAW_PBE Fe 06Sep2000
   POMASS =   55.847; ZVAL   =    8.000    mass and valenz
   ENMAX  =  267.882; ENMIN  =  200.911 eV

 POTCAR:    PAW_PBE Ni 02Aug2007
   VRHFIN =Ni:

   TITEL  = PAW_PBE Ni 02Aug2007
   POMASS =   58.690; ZVAL   =   10.000    mass and valenz
   ENMAX  =  269.532; ENMIN  =  202.149 eV

 POTCAR:    PAW_PBE O 08Apr2002
   VRHFIN =O: s2p4

   TITEL  = PAW_PBE O 08Apr2002
   POMASS =   16.000; ZVAL   =    6.000    mass and valenz
   ENMAX  =  400.000; ENMIN  =  300.000 eV

 POTCAR:    PAW_PBE H 15Jun2001
   VRHFIN =H: ultrasoft test

   TITEL  = PAW_PBE H 15Jun2001
   POMASS =    1.000; ZVAL   =    1.000    mass and valenz
   ENMAX  =  250.000; ENMIN  =  200.000 eV

 Optimization of the real space projectors (new method)

 maximal supplied QI-value         = 16.25
 optimisation between [QCUT,QGAM] = [ 11.54, 23.24] = [ 37.28,151.24] Ry
 Optimized for a Real-space Cutoff    1.53 Angstroem

   l    n(q)    QCUT    max X(q) W(low)/X(q) W(high)/X(q)  e(spline)
   2     10    11.539    80.901    0.11E-03    0.14E-03    0.21E-06
   2     10    11.539    75.754    0.11E-03    0.14E-03    0.22E-06
   0     11    11.539    58.752    0.52E-04    0.18E-04    0.33E-06
   0     11    11.539    30.679    0.44E-04    0.16E-04    0.30E-06
   1     10    11.539    17.977    0.53E-04    0.29E-04    0.13E-06
   1     10    11.539    13.559    0.44E-04    0.25E-04    0.11E-06
 Optimization of the real space projectors (new method)

[...]

   l    n(q)    QCUT    max X(q) W(low)/X(q) W(high)/X(q)  e(spline)
   0      8    11.635    20.381    0.10E-03    0.33E-03    0.24E-06
   0      8    11.635    15.268    0.11E-03    0.35E-03    0.26E-06
   1      7    11.635     5.964    0.24E-03    0.31E-03    0.30E-06
   1      7    11.635     5.382    0.22E-03    0.25E-03    0.26E-06
 Optimization of the real space projectors (new method)

 maximal supplied QI-value         = 34.20
 optimisation between [QCUT,QGAM] = [ 11.63, 23.26] = [ 37.87,151.49] Ry
 Optimized for a Real-space Cutoff    1.21 Angstroem

   l    n(q)    QCUT    max X(q) W(low)/X(q) W(high)/X(q)  e(spline)
   0      8    11.629    19.460    0.17E-03    0.34E-03    0.21E-06
   0      8    11.629    12.209    0.16E-03    0.33E-03    0.21E-06
   1      8    11.629     4.655    0.18E-03    0.16E-03    0.26E-06
  PAW_PBE Fe 06Sep2000                  :
  PAW_PBE Ni 02Aug2007                  :
  PAW_PBE O 08Apr2002                   :
  PAW_PBE H 15Jun2001                   :

 POSCAR: POSCAR
  positions in direct lattice
  velocities in cartesian coordinates
 exchange correlation table for  LEXCH =        8
   RHO(1)=    0.500       N(1)  =     2000
   RHO(2)=  100.500       N(2)  =     4000

 VTST: version 3.2, (02/03/18)

 CHAIN: initializing optimizer

 OPT: Using VASP Dynamics algorithm
 CHAIN: Read ICHAIN            0

 POSCAR: POSCAR
  positions in direct lattice
  velocities in cartesian coordinates

 ion  position               nearest neighbor table
   1  0.002  0.999  0.097-   9 2.45  29 2.50  49 2.51  64 2.51  44 2.53   7 2.53  51 2.54  38 2.55
                             5 2.60
   2  0.996  0.995  0.380-  11 2.46   6 2.48  57 2.48  48 2.49  39 2.50   8 2.50  30 2.52  52 2.54
                            50 2.58
   3  0.499  0.996  0.096-   5 2.47  62 2.50  34 2.52  31 2.52  49 2.53  45 2.55  55 2.55  12 2.56
                            53 2.58
   4  0.500  0.991  0.378-  15 2.39  63 2.43  13 2.44  35 2.50  32 2.51   6 2.52  50 2.55  54 2.57
                            56 2.58
   5  0.743  0.996  0.094-   3 2.47  34 2.47  62 2.52  38 2.53  55 2.54  64 2.58  14 2.58  51 2.59
                             1 2.60
   6  0.753  0.998  0.386-  68 1.82  39 2.47   2 2.48  56 2.52   4 2.52  35 2.54  47 2.54  15 2.55
                            52 2.57  57 2.58
   7  0.249  0.253  0.097-  22 2.43   9 2.44  51 2.49  18 2.52  20 2.53   1 2.53  53 2.54  10 2.55
                            49 2.58
   8  0.245  0.241  0.382-  66 1.79  11 2.46  52 2.46  19 2.50   2 2.50  59 2.51  26 2.52  54 2.53
                            50 2.55  21 2.56
   9  0.089  0.161  0.191-  10 2.41   7 2.44   1 2.45  44 2.47  11 2.49  57 2.52  51 2.52  59 2.53
                            64 2.54  22 2.55  58 2.62  14 2.68
  10  0.330  0.166  0.195-  26 2.41   9 2.41  11 2.44  22 2.48  45 2.48  44 2.49  13 2.50   7 2.55
                            12 2.57  49 2.58  53 2.59  25 2.59
  11  0.165  0.078  0.287-  10 2.44  44 2.45   8 2.46   2 2.46   9 2.49  13 2.49  48 2.51  57 2.52
                            46 2.53  26 2.54  59 2.56  50 2.58
  12  0.583  0.166  0.194-  14 2.45  15 2.49  27 2.50  13 2.52  62 2.52  45 2.54  28 2.54  55 2.55
                             3 2.56  10 2.57  53 2.58  25 2.58
  13  0.413  0.081  0.290-   4 2.44  11 2.49  10 2.50  45 2.51  50 2.51  26 2.52  12 2.52  54 2.53
                            46 2.54  15 2.57  63 2.57  28 2.58
  14  0.827  0.167  0.193-  60 2.44  12 2.45  15 2.47  57 2.50  62 2.51  55 2.51  27 2.53  58 2.56
                            51 2.56   5 2.58  64 2.59   9 2.68
  15  0.666  0.081  0.289-   4 2.39  14 2.47  12 2.49  56 2.51  62 2.51  60 2.52  47 2.52  57 2.54
                             6 2.55  28 2.55  63 2.56  13 2.57
  16  0.003  0.511  0.095-  31 2.44  29 2.45  23 2.48  33 2.51  58 2.57  18 2.58  27 2.59  55 2.60
                            51 2.63
  17  0.004  0.502  0.375-  37 2.38  60 2.42  43 2.49  32 2.49  30 2.52  19 2.53  52 2.55  56 2.56
                            24 2.56
  18  0.256  0.506  0.097-  36 2.40  31 2.45  34 2.47  22 2.47  20 2.48   7 2.52  58 2.53  51 2.58
                            16 2.58
  19  0.247  0.489  0.385-  67 1.86  52 2.41  59 2.50   8 2.50  21 2.53  17 2.53  61 2.57  37 2.59
                            35 2.59  32 2.60
  20  0.500  0.503  0.098-  22 2.41  40 2.43  34 2.48  18 2.48  38 2.50  25 2.53   7 2.53  53 2.54
                            23 2.58
  21  0.498  0.494  0.375-  26 2.38  61 2.42  42 2.43  19 2.53  35 2.53  54 2.55  24 2.55   8 2.56
                            39 2.57
  22  0.339  0.416  0.189-  20 2.41   7 2.43  40 2.46  18 2.47  25 2.48  26 2.48  10 2.48  61 2.51
                            36 2.53   9 2.55  59 2.56  58 2.60
  23  0.757  0.508  0.096-  29 2.40  41 2.46  16 2.48  27 2.48  38 2.48  25 2.56  55 2.57  20 2.58
                            53 2.60
  24  0.749  0.494  0.390-  65 1.88  69 1.94  28 2.51  56 2.52  21 2.55  54 2.56  17 2.56  30 2.59
                            39 2.61  42 2.63  43 2.75
  25  0.586  0.422  0.194-  42 2.42  40 2.45  41 2.46  27 2.46  26 2.47  22 2.48  20 2.53  28 2.55
                            23 2.56  53 2.58  12 2.58  10 2.59
  26  0.413  0.331  0.286-  21 2.38  10 2.41  25 2.47  22 2.48  59 2.50   8 2.52  13 2.52  61 2.52
                            11 2.54  28 2.57  42 2.59  54 2.66
  27  0.827  0.417  0.192-  43 2.41  41 2.45  25 2.46  23 2.48  60 2.50  12 2.50  55 2.51  28 2.53
                            14 2.53  58 2.59  16 2.59  33 2.60
  28  0.669  0.335  0.292-  56 2.49  60 2.49  42 2.50  24 2.51  27 2.53  12 2.54  43 2.54  15 2.55
                            25 2.55  26 2.57  13 2.58  54 2.58
  29  0.992  0.747  0.096-  23 2.40  16 2.45  38 2.48  41 2.50   1 2.50  33 2.54  44 2.56  49 2.57
                            31 2.63
  30  0.003  0.750  0.384-  65 1.85  46 2.44  50 2.46  32 2.50   2 2.52  17 2.52  48 2.55  24 2.59
                            39 2.59  43 2.61
  31  0.251  0.746  0.097-  16 2.44  36 2.44  18 2.45  33 2.49  34 2.52   3 2.52  45 2.55  49 2.56
                            29 2.63
  32  0.249  0.747  0.387-  67 1.87  50 2.47  17 2.49  30 2.50   4 2.51  46 2.53  35 2.57  63 2.59
                            19 2.60  37 2.61
  33  0.086  0.671  0.192-  43 2.40  45 2.48  44 2.48  46 2.49  31 2.49  37 2.49  16 2.51  36 2.52
                            41 2.52  29 2.54  58 2.55  27 2.60
  34  0.502  0.749  0.098-  18 2.47   5 2.47  40 2.48  36 2.48  20 2.48  62 2.49  38 2.49  31 2.52
                             3 2.52
  35  0.503  0.746  0.385-  67 1.87  39 2.45  47 2.49   4 2.50  21 2.53   6 2.54  61 2.55  32 2.57
                            63 2.58  19 2.59
  36  0.330  0.661  0.190-  18 2.40  31 2.44  34 2.48  37 2.48  58 2.49  61 2.49  63 2.50  33 2.52
                            22 2.53  40 2.53  62 2.56  45 2.62
  37  0.168  0.581  0.286-  17 2.38  58 2.45  36 2.48  63 2.49  61 2.49  33 2.49  59 2.51  46 2.51
                            60 2.55  43 2.55  19 2.59  32 2.61
  38  0.748  0.749  0.094-  29 2.48  23 2.48  34 2.49  20 2.50   5 2.53  40 2.54  64 2.55   1 2.55
                            41 2.58
  39  0.747  0.751  0.387-  65 1.84  35 2.45   6 2.47   2 2.50  47 2.52  21 2.57  42 2.58  30 2.59
                            24 2.61  48 2.61
  40  0.580  0.661  0.192-  20 2.43  25 2.45  22 2.46  61 2.47  34 2.48  42 2.52  36 2.53  38 2.54
                            41 2.54  47 2.54  62 2.56  64 2.57
  41  0.832  0.662  0.193-  43 2.35  42 2.43  48 2.45  27 2.45  25 2.46  23 2.46  29 2.50  33 2.52
                            40 2.54  64 2.54  44 2.57  38 2.58
  42  0.673  0.584  0.287-  25 2.42  21 2.43  41 2.43  43 2.47  48 2.47  28 2.50  40 2.52  47 2.54
                            39 2.58  26 2.59  61 2.60  24 2.63
  43  0.919  0.587  0.281-  41 2.35  33 2.40  27 2.41  46 2.46  42 2.47  48 2.47  17 2.49  28 2.54
                            37 2.55  60 2.56  30 2.61  24 2.75
  44  0.086  0.916  0.194-  45 2.43  11 2.45  48 2.45   9 2.47  33 2.48  10 2.49  46 2.52   1 2.53
                            49 2.53  64 2.54  29 2.56  41 2.57
  45  0.327  0.919  0.193-  44 2.43  33 2.48  10 2.48  49 2.49  13 2.51  46 2.51  63 2.52  12 2.54
                            31 2.55   3 2.55  62 2.59  36 2.62
  46  0.164  0.827  0.290-  30 2.44  43 2.46  33 2.49  50 2.51  45 2.51  37 2.51  44 2.52  63 2.52
                            48 2.52  32 2.53  11 2.53  13 2.54
  47  0.665  0.831  0.289-  35 2.49  39 2.52  62 2.52  15 2.52  64 2.52  63 2.53  61 2.53  42 2.54
                            48 2.54   6 2.54  40 2.54  57 2.56
  48  0.916  0.830  0.285-  44 2.45  41 2.45  64 2.46  42 2.47  43 2.47   2 2.49  11 2.51  46 2.52
                            47 2.54  30 2.55  57 2.56  39 2.61
  49  0.249  0.998  0.096-  45 2.49   1 2.51  44 2.53   3 2.53  53 2.55  31 2.56  29 2.57  10 2.58
                             7 2.58
  50  0.248  0.991  0.386-  66 1.87  30 2.46  32 2.47  46 2.51  13 2.51  54 2.52   8 2.55   4 2.55
                             2 2.58  11 2.58
  51  0.001  0.250  0.097-   7 2.49  58 2.51   9 2.52   1 2.54  55 2.55  14 2.56  18 2.58   5 2.59
                            16 2.63
  52  0.007  0.251  0.381-  68 1.89  19 2.41  59 2.46   8 2.46  57 2.50  56 2.54   2 2.54  60 2.54
                            17 2.55   6 2.57
  53  0.499  0.252  0.095-  55 2.53   7 2.54  20 2.54  49 2.55   3 2.58  25 2.58  12 2.58  10 2.59
[...]
      1.25358      5.08647      6.07350         0.293641      0.088833      0.244188
      1.25660      8.01495      4.09194        -0.084360      0.031588     -0.217531
     -0.00408      7.24430      6.07931        -0.131424      0.273172      0.299042
      3.80919      8.00883      4.09175        -0.092733     -0.004559     -0.457077
      5.07228      5.89627      9.30980        -0.028658      0.212128     -0.276089
      2.35643      1.40578      9.34062        -0.237919      0.122298     -0.216914
      0.05173      5.75707      9.31753        -0.063464     -0.060311     -0.751169
      7.73651      1.40004      9.35221        -0.011627     -0.466286     -0.644039
      5.18297      2.85673      9.55000        -0.158232      0.538181     -0.368873
      5.67740      2.78931     11.00858         0.245900     -0.005577      0.068520
      6.48946      2.24665     10.82695        -0.096805      0.103824      0.139758
    total drift:                                0.003270     -0.009888     -0.005699

  FREE ENERGIE OF THE ION-ELECTRON SYSTEM (eV)
  free  energy   TOTEN  =      -505.29412611 eV

  energy  without entropy=     -501.97607493  energy(sigma->0) =     -503.63510052

 d Force =-0.1420002E-02[-0.419E-02, 0.135E-02]  d Energy =-0.1399795E-02-0.202E-04
 d Force =-0.8434704E+01[-0.843E+01,-0.844E+01]  d Ewald  =-0.8434436E+01-0.267E-03

 stress matrix after NEB project (eV)
   -126.34804      1.74421     -0.39662
      1.74421   -126.81986      3.08777
     -0.39662      3.08777    -69.58583
  FORCES: max atom, RMS     0.671374    0.088463
  FORCE total and by dimension    0.745398    0.538181
  Stress total and by dimension  192.132140  126.819857
 Finite differences progress:
  Degree of freedom:   9/  9
  Displacement:        2/  2
  Total:              18/ 18

 SECOND DERIVATIVES (NOT SYMMETRIZED)
              69X         69Y         69Z         70X         70Y         70Z         71X         71Y         71Z
 69X    -8.647618    0.859235   -0.166543    2.600723   -0.976887   -1.260414    0.875099   -0.036704    2.889292
 69Y     0.814009   -7.622812    0.136285   -0.505081    2.099996    1.670474   -0.305109    0.077224   -1.795374
 69Z    -0.178265    0.109556   -6.913493    0.962624   -0.318449    1.242252    0.831316   -0.261640    0.747305
 70X     2.603027   -0.541850    0.937888  -30.498024   19.965231    6.096608   27.863685  -18.702745   -7.436034
 70Y    -0.977050    2.081210   -0.332415   19.921963  -14.412035   -5.400721  -18.361585   12.917705    5.489031
 70Z    -1.174605    1.692143    1.290458    6.140515   -5.413138  -10.973331   -5.507074    4.150076    5.152041
 71X     0.877792   -0.307015    0.819838   27.910250  -18.448786   -5.507764  -28.518636   18.521105    4.267162
 71Y    -0.037124    0.071822   -0.234880  -18.714139   12.932583    4.166190   18.483674  -12.999171   -3.574368
 71Z     2.915593   -1.817523    0.779073   -7.452729    5.504081    5.143757    4.225184   -3.555269   -6.161624

 Eigenvectors and eigenvalues of the dynamical matrix

   1 f  =  104.102976 THz   654.098286 2PiTHz 3472.501377 cm-1   430.535454 meV
             X         Y         Z           dx          dy          dz
     -5.032083  8.749923  2.059207            0           0           0
      5.040469  8.715992  8.087605            0           0           0
      0.005743  8.726069  2.044661            0           0           0
      0.050086  8.678918  8.043626            0           0           0
      2.476647  8.725920  2.008210            0           0           0
      2.567245  8.741576  8.216385            0           0           0
      1.238907  2.217482  2.058803            0           0           0
      1.258455  2.109737  8.120848            0           0           0
      0.080741  1.414191  4.053211            0           0           0
      2.493295  1.454508  4.148294            0           0           0
      1.271005  0.682870  6.114047            0           0           0
      5.061665  1.449298  4.134981            0           0           0
      3.764212  0.712074  6.168459            0           0           0
      7.515570  1.458116  4.110014            0           0           0
      6.329387  0.707764  6.142981            0           0           0
     -2.550623  4.473994  2.009954            0           0           0
     -2.499200  4.396547  7.978832            0           0           0
      0.030138  4.429053  2.070202            0           0           0
      0.023665  4.281230  8.182499            0           0           0
      2.508468  4.405164  2.074349            0           0           0
      2.543177  4.321806  7.978198            0           0           0
      1.321393  3.641455  4.027713            0           0           0
      5.083819  4.448896  2.048149            0           0           0
      5.073625  4.323759  8.288591            0           0           0
      3.793772  3.697998  4.130706            0           0           0
      2.507330  2.896609  6.076997            0           0           0
      6.252931  3.649555  4.083048            0           0           0
      5.075984  2.929892  6.199422            0           0           0
      6.251940  6.541671  2.035474            0           0           0
     -3.757692  6.569738  8.160691            0           0           0
     -1.231329  6.529507  2.063609            0           0           0
     -1.259054  6.542189  8.235998            0           0           0
     -2.521724  5.874752  4.087450            0           0           0
      1.284263  6.559439  2.074094            0           0           0
      1.313589  6.528970  8.179433            0           0           0
     -0.006259  5.791447  4.044577            0           0           0
     -1.238952  5.085949  6.075112            0           0           0
      3.776284  6.555708  2.000001            0           0           0
      3.759698  6.576266  8.221061            0           0           0
      2.523868  5.788006  4.073096            0           0           0
      5.067337  5.797043  4.105165            0           0           0
      3.856429  5.110301  6.097767            0           0           0
      6.324665  5.136422  5.983332            0           0           0
     -3.762957  8.024455  4.119563            0           0           0
     -1.337071  8.050437  4.103081            0           0           0
     -2.523310  7.242072  6.163326            0           0           0
      2.527593  7.274850  6.138368            0           0           0
      5.068183  7.266538  6.067174            0           0           0
     -2.526901  8.740562  2.033028            0           0           0
     -2.496345  8.675159  8.218093            0           0           0
     -1.249535  2.186973  2.054039            0           0           0
     -1.202459  2.202097  8.112962            0           0           0
      3.776871  2.203480  2.028243            0           0           0
      3.781297  2.116756  8.273846            0           0           0
      6.310522  2.195476  2.035857            0           0           0
      6.372870  2.169313  8.178257            0           0           0
      8.865315  0.738284  6.084071            0           0           0
     -1.273378  3.652340  4.088535            0           0           0
      0.010480  2.910206  6.096533            0           0           0
      7.561065  2.900451  6.074295            0           0           0
      1.253580  5.086471  6.073495            0           0           0
      1.256598  8.014945  4.091938            0           0           0
     -0.004079  7.244303  6.079313            0           0           0
      3.809188  8.008833  4.091746            0           0           0
      5.072279  5.896273  9.309805            0           0           0
      2.356429  1.405778  9.340625            0           0           0
      0.051727  5.757068  9.317525            0           0           0
      7.736511  1.400040  9.352210            0           0           0
      5.182967  2.856729  9.549998    -0.000525   -0.000633   -0.003568
      5.677403  2.789312 11.008581    -0.200443    0.134808    0.045110
      6.489465  2.246647 10.841955     0.795269   -0.532307   -0.154264

[...]

   9 f  =    1.783624 THz    11.206842 2PiTHz   59.495301 cm-1     7.376480 meV
             X         Y         Z           dx          dy          dz
     -5.032083  8.749923  2.059207            0           0           0
      5.040469  8.715992  8.087605            0           0           0
      0.005743  8.726069  2.044661            0           0           0
      0.050086  8.678918  8.043626            0           0           0
      2.476647  8.725920  2.008210            0           0           0
      2.567245  8.741576  8.216385            0           0           0
      1.238907  2.217482  2.058803            0           0           0
      1.258455  2.109737  8.120848            0           0           0
      0.080741  1.414191  4.053211            0           0           0
      2.493295  1.454508  4.148294            0           0           0
      1.271005  0.682870  6.114047            0           0           0
      5.061665  1.449298  4.134981            0           0           0
      3.764212  0.712074  6.168459            0           0           0
      7.515570  1.458116  4.110014            0           0           0
      6.329387  0.707764  6.142981            0           0           0
     -2.550623  4.473994  2.009954            0           0           0
     -2.499200  4.396547  7.978832            0           0           0
      0.030138  4.429053  2.070202            0           0           0
      0.023665  4.281230  8.182499            0           0           0
      2.508468  4.405164  2.074349            0           0           0
      2.543177  4.321806  7.978198            0           0           0
      1.321393  3.641455  4.027713            0           0           0
      5.083819  4.448896  2.048149            0           0           0
      5.073625  4.323759  8.288591            0           0           0
      3.793772  3.697998  4.130706            0           0           0
      2.507330  2.896609  6.076997            0           0           0
      6.252931  3.649555  4.083048            0           0           0
      5.075984  2.929892  6.199422            0           0           0
      6.251940  6.541671  2.035474            0           0           0
     -3.757692  6.569738  8.160691            0           0           0
     -1.231329  6.529507  2.063609            0           0           0
     -1.259054  6.542189  8.235998            0           0           0
     -2.521724  5.874752  4.087450            0           0           0
      1.284263  6.559439  2.074094            0           0           0
      1.313589  6.528970  8.179433            0           0           0
     -0.006259  5.791447  4.044577            0           0           0
     -1.238952  5.085949  6.075112            0           0           0
      3.776284  6.555708  2.000001            0           0           0
      3.759698  6.576266  8.221061            0           0           0
      2.523868  5.788006  4.073096            0           0           0
      5.067337  5.797043  4.105165            0           0           0
      3.856429  5.110301  6.097767            0           0           0
      6.324665  5.136422  5.983332            0           0           0
     -3.762957  8.024455  4.119563            0           0           0
     -1.337071  8.050437  4.103081            0           0           0
     -2.523310  7.242072  6.163326            0           0           0
      2.527593  7.274850  6.138368            0           0           0
      5.068183  7.266538  6.067174            0           0           0
     -2.526901  8.740562  2.033028            0           0           0
     -2.496345  8.675159  8.218093            0           0           0
     -1.249535  2.186973  2.054039            0           0           0
     -1.202459  2.202097  8.112962            0           0           0
      3.776871  2.203480  2.028243            0           0           0
      3.781297  2.116756  8.273846            0           0           0
      6.310522  2.195476  2.035857            0           0           0
      6.372870  2.169313  8.178257            0           0           0
      8.865315  0.738284  6.084071            0           0           0
     -1.273378  3.652340  4.088535            0           0           0
      0.010480  2.910206  6.096533            0           0           0
      7.561065  2.900451  6.074295            0           0           0
      1.253580  5.086471  6.073495            0           0           0
      1.256598  8.014945  4.091938            0           0           0
     -0.004079  7.244303  6.079313            0           0           0
      3.809188  8.008833  4.091746            0           0           0
      5.072279  5.896273  9.309805            0           0           0
      2.356429  1.405778  9.340625            0           0           0
      0.051727  5.757068  9.317525            0           0           0
      7.736511  1.400040  9.352210            0           0           0
      5.182967  2.856729  9.549998    -0.171721   -0.131428   -0.085077
      5.677403  2.789312 11.008581    -0.781926   -0.526959    0.148672
      6.489465  2.246647 10.841955    -0.152996   -0.075862    0.075101

 Finite differences POTIM=  1.500000000000000E-002

 total charge

# of ion       s       p       d       tot
    1        0.467   0.358   6.256   7.081
    2        0.456   0.362   6.300   7.118
    3        0.459   0.349   6.250   7.057
    4        0.469   0.361   6.303   7.133
    5        0.452   0.346   6.244   7.042
    6        0.480   0.516   6.277   7.272
    7        0.469   0.366   6.266   7.101
    8        0.492   0.538   6.301   7.331
    9        0.476   0.499   6.264   7.239
   10        0.491   0.517   6.278   7.286
   11        0.488   0.522   6.278   7.289
   12        0.471   0.488   6.250   7.208
   13        0.473   0.501   6.261   7.235
   14        0.460   0.468   6.262   7.190
   15        0.477   0.504   6.260   7.240
   16        0.462   0.352   6.252   7.066
   17        0.474   0.370   6.293   7.136
   18        0.482   0.392   6.265   7.139
   19        0.459   0.483   6.282   7.223
   20        0.487   0.395   6.267   7.150
   21        0.475   0.377   6.293   7.145
   22        0.491   0.534   6.278   7.303
   23        0.478   0.381   6.262   7.120
   24        0.433   0.527   6.294   7.253
   25        0.489   0.529   6.272   7.290
   26        0.482   0.521   6.270   7.273
   27        0.482   0.514   6.268   7.264
   28        0.467   0.492   6.257   7.216
   29        0.481   0.385   6.261   7.127
   30        0.470   0.508   6.279   7.257
   31        0.483   0.384   6.260   7.127
   32        0.457   0.481   6.274   7.211
   33        0.493   0.534   6.274   7.300
   34        0.489   0.407   6.262   7.157
   35        0.462   0.494   6.274   7.230
   36        0.484   0.518   6.277   7.280
   37        0.477   0.507   6.270   7.255
   38        0.472   0.378   6.251   7.101
   39        0.474   0.508   6.280   7.262
   40        0.483   0.517   6.273   7.274
   41        0.503   0.547   6.295   7.345
   42        0.491   0.524   6.274   7.290
   43        0.498   0.541   6.285   7.325
   44        0.490   0.531   6.274   7.295
   45        0.475   0.506   6.257   7.238
   46        0.489   0.523   6.282   7.294
   47        0.469   0.480   6.261   7.210
   48        0.485   0.525   6.268   7.278
   49        0.505   0.364   8.299   9.168
   50        0.508   0.511   8.305   9.324
   51        0.499   0.352   8.301   9.152
   52        0.500   0.508   8.313   9.321
   53        0.490   0.339   8.303   9.132
   54        0.450   0.495   8.326   9.272
   55        0.502   0.353   8.302   9.157
   56        0.469   0.551   8.322   9.342
   57        0.504   0.502   8.298   9.304
   58        0.501   0.495   8.296   9.292
   59        0.508   0.504   8.319   9.331
   60        0.512   0.511   8.313   9.336
   61        0.518   0.526   8.295   9.339
   62        0.510   0.514   8.287   9.311
   63        0.511   0.516   8.294   9.322
   64        0.503   0.499   8.293   9.295
   65        1.584   3.354   0.000   4.939
   66        1.585   3.332   0.000   4.917
   67        1.583   3.347   0.000   4.930
   68        1.580   3.337   0.000   4.918
   69        1.588   3.282   0.000   4.871
   70        1.597   3.340   0.000   4.937
   71        0.599   0.111   0.000   0.710
tot         40.973  50.002 433.899 524.875