 vasp.5.4.4.18Apr17-6-g9f103f2a35 (build Dec 15 2018 21:27:11) complex

 executed on             LinuxIFC date 2022.03.06  04:00:02

 INCAR:
 POTCAR:    PAW_PBE Fe 06Sep2000
 POTCAR:    PAW_PBE Ni 02Aug2007
 POTCAR:    PAW_PBE O 08Apr2002

 POTCAR:    PAW_PBE Fe 06Sep2000
   VRHFIN =Fe:  d7 s1

   TITEL  = PAW_PBE Fe 06Sep2000
   POMASS =   55.847; ZVAL   =    8.000    mass and valenz
   ENMAX  =  267.882; ENMIN  =  200.911 eV

 POTCAR:    PAW_PBE Ni 02Aug2007
   VRHFIN =Ni:

   TITEL  = PAW_PBE Ni 02Aug2007
   POMASS =   58.690; ZVAL   =   10.000    mass and valenz
   ENMAX  =  269.532; ENMIN  =  202.149 eV

 POTCAR:    PAW_PBE O 08Apr2002
   VRHFIN =O: s2p4

   TITEL  = PAW_PBE O 08Apr2002
   POMASS =   16.000; ZVAL   =    6.000    mass and valenz
   ENMAX  =  400.000; ENMIN  =  300.000 eV

 Optimization of the real space projectors (new method)

 maximal supplied QI-value         = 16.25
 optimisation between [QCUT,QGAM] = [ 11.54, 23.24] = [ 37.28,151.24] Ry
 Optimized for a Real-space Cutoff    1.53 Angstroem

   l    n(q)    QCUT    max X(q) W(low)/X(q) W(high)/X(q)  e(spline)
   2     10    11.539    80.901    0.11E-03    0.14E-03    0.21E-06
   2     10    11.539    75.754    0.11E-03    0.14E-03    0.22E-06
   0     11    11.539    58.752    0.52E-04    0.18E-04    0.33E-06
   0     11    11.539    30.679    0.44E-04    0.16E-04    0.30E-06
   1     10    11.539    17.977    0.53E-04    0.29E-04    0.13E-06
   1     10    11.539    13.559    0.44E-04    0.25E-04    0.11E-06
 Optimization of the real space projectors (new method)

[...]

   l    n(q)    QCUT    max X(q) W(low)/X(q) W(high)/X(q)  e(spline)
   2      9    11.539    60.317    0.19E-03    0.47E-04    0.16E-06
   2      9    11.539    55.921    0.19E-03    0.48E-04    0.16E-06
   0     10    11.539    51.690    0.80E-04    0.50E-04    0.24E-06
   0     10    11.539    30.015    0.73E-04    0.45E-04    0.22E-06
   1     10    11.539    18.849    0.87E-04    0.16E-03    0.71E-07
   1     10    11.539    14.624    0.73E-04    0.13E-03    0.64E-07
 Optimization of the real space projectors (new method)

 maximal supplied QI-value         = 24.76
 optimisation between [QCUT,QGAM] = [ 11.64, 23.27] = [ 37.91,151.63] Ry
 Optimized for a Real-space Cutoff    1.14 Angstroem

   l    n(q)    QCUT    max X(q) W(low)/X(q) W(high)/X(q)  e(spline)
   0      8    11.635    20.381    0.10E-03    0.33E-03    0.24E-06
   0      8    11.635    15.268    0.11E-03    0.35E-03    0.26E-06
   1      7    11.635     5.964    0.24E-03    0.31E-03    0.30E-06
   1      7    11.635     5.382    0.22E-03    0.25E-03    0.26E-06
  PAW_PBE Fe 06Sep2000                  :
  PAW_PBE Ni 02Aug2007                  :
  PAW_PBE O 08Apr2002                   :

 POSCAR: POSCAR
  positions in direct lattice
  velocities in cartesian coordinates
 exchange correlation table for  LEXCH =        8
   RHO(1)=    0.500       N(1)  =     2000
   RHO(2)=  100.500       N(2)  =     4000

 VTST: version 3.2, (02/03/18)

 CHAIN: initializing optimizer

 OPT: Using VASP Conjugate-Gradient optimizer
 CHAIN: Read ICHAIN            0

 POSCAR: POSCAR
  positions in direct lattice
  velocities in cartesian coordinates

 ion  position               nearest neighbor table
   1  0.002  0.999  0.097-   9 2.45  29 2.50  49 2.51  64 2.51  44 2.53   7 2.53  51 2.54  38 2.55
                             5 2.60
   2  0.003  0.002  0.381-  11 2.43  48 2.45   8 2.49  30 2.50  52 2.51  57 2.51   6 2.51  50 2.55
                            39 2.56
   3  0.499  0.996  0.096-   5 2.47  62 2.50  34 2.52  31 2.52  49 2.53  45 2.55  55 2.55  12 2.56
                            53 2.58
   4  0.495  0.987  0.379-  63 2.40  15 2.43  32 2.45  35 2.46  13 2.47  50 2.52   6 2.55  56 2.58
                            54 2.61
   5  0.743  0.996  0.094-   3 2.47  34 2.47  62 2.52  38 2.53  55 2.54  64 2.58  14 2.58  51 2.59
                             1 2.60
   6  0.752  0.996  0.382-  68 1.79  39 2.44  47 2.49  56 2.49  57 2.50   2 2.51  35 2.53  15 2.54
                             4 2.55  52 2.59
   7  0.249  0.253  0.097-  22 2.43   9 2.44  51 2.49  18 2.52  20 2.53   1 2.53  53 2.54  10 2.55
                            49 2.58
   8  0.250  0.249  0.382-  66 1.77  11 2.44  19 2.46  52 2.46   2 2.49  59 2.50  26 2.52  21 2.52
                            54 2.54  50 2.57
   9  0.089  0.161  0.191-  10 2.41   7 2.44   1 2.45  44 2.47  59 2.52  51 2.52  57 2.53  11 2.53
                            64 2.54  22 2.55  58 2.62  14 2.68
  10  0.330  0.166  0.195-  26 2.41   9 2.41  11 2.45  13 2.47  22 2.48  45 2.48  44 2.49   7 2.55
                            12 2.57  49 2.58  53 2.59  25 2.59
  11  0.170  0.083  0.290-   2 2.43   8 2.44  10 2.45  26 2.50  44 2.52  59 2.52  13 2.52  46 2.52
                             9 2.53  48 2.54  50 2.56  57 2.57
  12  0.583  0.166  0.194-  15 2.43  13 2.44  14 2.45  27 2.50  62 2.52  45 2.54  55 2.55   3 2.56
                            10 2.57  53 2.58  25 2.58  28 2.60
  13  0.421  0.088  0.288-  12 2.44  26 2.45  15 2.46  10 2.47   4 2.47  45 2.50  11 2.52  54 2.56
                            46 2.56  28 2.56  63 2.58  50 2.59
  14  0.827  0.167  0.193-  60 2.45  12 2.45  15 2.47  57 2.48  62 2.51  55 2.51  27 2.53  58 2.56
                            51 2.56   5 2.58  64 2.59   9 2.68
  15  0.663  0.085  0.288-   4 2.43  12 2.43  13 2.46  14 2.47  60 2.51  62 2.51   6 2.54  56 2.55
                            63 2.55  47 2.56  57 2.56  28 2.56
  16  0.003  0.511  0.095-  31 2.44  29 2.45  23 2.48  33 2.51  58 2.57  18 2.58  27 2.59  55 2.60
                            51 2.63
  17  0.002  0.503  0.376-  43 2.37  37 2.40  60 2.43  32 2.51  19 2.55  30 2.55  24 2.56  52 2.57
                            56 2.62
  18  0.256  0.506  0.097-  36 2.40  31 2.45  34 2.47  22 2.47  20 2.48   7 2.52  58 2.53  51 2.58
                            16 2.58
  19  0.247  0.491  0.384-  67 1.84  52 2.42   8 2.46  59 2.51  21 2.52  17 2.55  37 2.55  61 2.56
                            35 2.58  32 2.60
  20  0.500  0.503  0.098-  22 2.41  40 2.43  34 2.48  18 2.48  38 2.50  25 2.53   7 2.53  53 2.54
                            23 2.58
  21  0.500  0.498  0.377-  42 2.37  26 2.43  61 2.43  35 2.51  19 2.52   8 2.52  39 2.55  24 2.56
                            54 2.56
  22  0.339  0.416  0.189-  20 2.41   7 2.43  40 2.46  18 2.47  25 2.48  10 2.48  61 2.51  36 2.53
                            26 2.53  59 2.54   9 2.55  58 2.60
  23  0.757  0.508  0.096-  29 2.40  41 2.46  16 2.48  27 2.48  38 2.48  25 2.56  55 2.57  20 2.58
                            53 2.60
  24  0.749  0.496  0.396-  69 1.78  65 1.85  54 2.54  21 2.56  17 2.56  28 2.58  56 2.59  39 2.61
                            30 2.63  43 2.70  42 2.73
  25  0.586  0.422  0.194-  40 2.45  26 2.45  41 2.46  27 2.46  42 2.46  22 2.48  20 2.53  28 2.54
                            23 2.56  53 2.58  12 2.58  10 2.59
  26  0.419  0.329  0.287-  10 2.41  21 2.43  25 2.45  13 2.45  11 2.50  28 2.50   8 2.52  22 2.53
                            42 2.54  59 2.55  61 2.57  54 2.61
  27  0.827  0.417  0.192-  41 2.45  25 2.46  23 2.48  12 2.50  55 2.51  60 2.52  28 2.52  14 2.53
                            43 2.55  58 2.59  16 2.59  33 2.60
  28  0.673  0.343  0.292-  43 2.46  42 2.49  60 2.50  26 2.50  27 2.52  25 2.54  15 2.56  13 2.56
                            54 2.57  24 2.58  56 2.58  12 2.60
  29  0.992  0.747  0.096-  23 2.40  16 2.45  38 2.48  41 2.50   1 2.50  33 2.54  44 2.56  49 2.57
                            31 2.63
  30  0.007  0.757  0.388-  65 1.86  50 2.45  46 2.46  32 2.50   2 2.50  17 2.55  43 2.58  39 2.61
                            48 2.61  24 2.63
  31  0.251  0.746  0.097-  16 2.44  36 2.44  18 2.45  33 2.49  34 2.52   3 2.52  45 2.55  49 2.56
                            29 2.63
  32  0.251  0.749  0.388-  67 1.86   4 2.45  46 2.49  50 2.50  30 2.50  17 2.51  35 2.55  19 2.60
                            63 2.60  37 2.63
  33  0.086  0.671  0.192-  45 2.48  44 2.48  31 2.49  16 2.51  37 2.52  36 2.52  41 2.52  29 2.54
                            43 2.54  58 2.55  46 2.59  27 2.60
  34  0.502  0.749  0.098-  18 2.47   5 2.47  40 2.48  36 2.48  20 2.48  62 2.49  38 2.49  31 2.52
                             3 2.52
  35  0.501  0.746  0.384-  67 1.88  39 2.46   4 2.46  47 2.49  21 2.51   6 2.53  61 2.54  32 2.55
                            63 2.56  19 2.58
  36  0.330  0.661  0.190-  18 2.40  31 2.44  34 2.48  37 2.49  58 2.49  61 2.50  63 2.52  33 2.52
                            22 2.53  40 2.53  62 2.56  45 2.62
  37  0.169  0.580  0.286-  17 2.40  58 2.46  61 2.49  36 2.49  63 2.50  59 2.51  33 2.52  19 2.55
                            60 2.56  46 2.57  43 2.59  32 2.63
  38  0.748  0.749  0.094-  29 2.48  23 2.48  34 2.49  20 2.50   5 2.53  40 2.54  64 2.55   1 2.55
                            41 2.58
  39  0.747  0.752  0.386-  65 1.85   6 2.44  35 2.46  42 2.53  48 2.54  47 2.54  21 2.55   2 2.56
                            24 2.61  30 2.61
  40  0.580  0.661  0.192-  20 2.43  25 2.45  22 2.46  61 2.47  34 2.48  42 2.51  47 2.52  36 2.53
                            38 2.54  41 2.54  62 2.56  64 2.57
  41  0.832  0.662  0.193-  27 2.45  25 2.46  23 2.46  43 2.47  29 2.50  42 2.51  33 2.52  48 2.54
                            40 2.54  64 2.54  44 2.57  38 2.58
  42  0.665  0.584  0.289-  21 2.37  25 2.46  28 2.49  40 2.51  41 2.51  47 2.51  61 2.51  43 2.52
                            39 2.53  48 2.53  26 2.54  24 2.73
  43  0.916  0.587  0.289-  17 2.37  28 2.46  41 2.47  42 2.52  46 2.53  48 2.54  33 2.54  27 2.55
                            60 2.58  30 2.58  37 2.59  24 2.70
  44  0.086  0.916  0.194-  45 2.43   9 2.47  33 2.48  10 2.49  48 2.51  11 2.52   1 2.53  49 2.53
                            64 2.54  29 2.56  41 2.57  46 2.58
  45  0.327  0.919  0.193-  44 2.43  33 2.48  10 2.48  49 2.49  13 2.50  63 2.52  12 2.54  31 2.55
                             3 2.55  46 2.55  62 2.59  36 2.62
  46  0.169  0.834  0.294-  50 2.46  30 2.46  32 2.49  63 2.50  11 2.52  43 2.53  45 2.55  13 2.56
                            37 2.57  44 2.58  33 2.59  48 2.60
  47  0.661  0.831  0.287-  62 2.47   6 2.49  35 2.49  63 2.49  61 2.51  42 2.51  64 2.52  40 2.52
                            48 2.53  39 2.54  15 2.56  57 2.56
  48  0.914  0.837  0.288-   2 2.45  64 2.46  57 2.49  44 2.51  47 2.53  42 2.53  39 2.54  43 2.54
                            41 2.54  11 2.54  46 2.60  30 2.61
  49  0.249  0.998  0.096-  45 2.49   1 2.51  44 2.53   3 2.53  53 2.55  31 2.56  29 2.57  10 2.58
                             7 2.58
  50  0.252  0.997  0.388-  66 1.87  30 2.45  46 2.46  54 2.50  32 2.50   4 2.52   2 2.55  11 2.56
                             8 2.57  13 2.59
  51  0.001  0.250  0.097-   7 2.49  58 2.51   9 2.52   1 2.54  55 2.55  14 2.56  18 2.58   5 2.59
                            16 2.63
  52  0.008  0.252  0.381-  68 1.87  19 2.42  59 2.46   8 2.46   2 2.51  57 2.51  60 2.51  56 2.55
                            17 2.57   6 2.59
  53  0.499  0.252  0.095-  55 2.53   7 2.54  20 2.54  49 2.55   3 2.58  25 2.58  12 2.58  10 2.59
                            23 2.60
[...]
   -.684E+00 -.891E+02 -.183E+04   0.106E+01 0.901E+02 0.183E+04   -.397E+00 -.111E+01 0.340E+01   0.121E-02 -.250E-02 -.867E-02
   -.397E+01 -.115E+02 0.214E+04   0.427E+01 0.115E+02 -.214E+04   -.521E+00 -.407E+00 -.162E+01   -.153E-03 0.139E-02 -.192E-02
   -.351E+01 0.378E+02 -.190E+04   0.380E+01 -.396E+02 0.189E+04   -.278E+00 0.188E+01 0.210E+01   -.190E-02 -.284E-02 -.718E-02
   -.192E+02 -.930E+01 0.211E+04   0.190E+02 0.948E+01 -.211E+04   0.402E+00 -.451E+00 -.172E+01   -.344E-02 0.218E-02 -.154E-02
   0.206E+01 -.483E+02 -.184E+04   -.246E+01 0.493E+02 0.184E+04   0.405E+00 -.104E+01 0.319E+01   0.182E-03 -.140E-02 -.802E-02
   -.342E+02 0.875E+01 0.878E+03   0.341E+02 -.812E+01 -.877E+03   -.144E-01 -.122E+00 -.608E+00   -.880E-03 0.142E-02 -.131E-01
   0.183E+02 -.168E+02 0.210E+04   -.187E+02 0.171E+02 -.210E+04   -.785E-01 -.124E+01 -.266E+01   0.645E-03 0.997E-03 -.152E-02
   0.690E-02 -.109E+03 -.183E+04   -.110E+00 0.108E+03 0.183E+04   0.866E-01 0.897E-01 0.109E+01   0.722E-03 -.431E-03 -.605E-02
   -.207E+02 0.244E+01 0.786E+03   0.210E+02 -.278E+01 -.786E+03   -.633E+00 -.791E-01 -.298E+00   -.103E-02 0.100E-02 -.108E-01
   -.378E+02 -.800E+01 -.465E+03   0.379E+02 0.768E+01 0.464E+03   -.613E-01 0.331E+00 0.800E+00   -.117E-03 0.100E-02 -.163E-01
   0.307E+02 -.497E+02 0.817E+03   -.306E+02 0.496E+02 -.817E+03   0.722E+00 -.175E+00 -.285E+00   0.181E-02 -.447E-03 -.111E-01
   0.320E+02 -.400E+02 -.519E+03   -.319E+02 0.405E+02 0.519E+03   -.771E-01 -.467E+00 0.860E+00   0.830E-03 0.145E-02 -.153E-01
   -.661E+01 -.351E+01 0.210E+04   0.645E+01 0.356E+01 -.209E+04   0.639E+00 0.563E+00 -.230E+01   0.102E-02 -.748E-03 -.214E-02
   -.674E+02 -.157E+02 -.186E+04   0.693E+02 0.163E+02 0.185E+04   -.189E+01 -.616E+00 0.260E+01   -.272E-03 -.214E-02 -.516E-02
   0.143E+02 -.534E+01 0.211E+04   -.143E+02 0.542E+01 -.211E+04   -.970E-01 0.596E+00 -.180E+01   0.194E-02 -.205E-02 -.318E-02
   0.962E+02 -.151E+02 -.191E+04   -.982E+02 0.159E+02 0.191E+04   0.206E+01 -.812E+00 0.227E+01   -.115E-02 -.345E-02 -.546E-02
   0.407E+02 -.246E+02 0.799E+03   -.410E+02 0.247E+02 -.799E+03   0.815E+00 -.505E+00 -.571E-01   0.114E-02 -.230E-02 -.132E-01
   0.453E+00 0.107E+02 0.213E+04   -.583E+00 -.105E+02 -.213E+04   -.655E-02 0.396E+00 -.962E+00   -.124E-02 -.112E-02 -.418E-02
   -.988E+02 -.467E+02 -.189E+04   0.101E+03 0.481E+02 0.189E+04   -.206E+01 -.142E+01 0.165E+01   0.153E-03 -.283E-02 -.561E-02
   0.247E+02 -.255E+02 0.872E+03   -.238E+02 0.253E+02 -.872E+03   -.264E+00 0.270E+00 -.462E+00   -.960E-03 -.396E-02 -.152E-01
   0.622E+02 -.716E+02 -.511E+03   -.630E+02 0.717E+02 0.511E+03   0.768E+00 -.172E+00 0.392E-01   -.762E-03 -.409E-02 -.153E-01
   -.100E+02 0.958E+01 0.214E+04   0.102E+02 -.937E+01 -.213E+04   -.272E+00 0.264E+00 -.171E+01   -.200E-02 0.173E-03 -.279E-02
   0.743E+02 -.370E+02 -.185E+04   -.764E+02 0.379E+02 0.184E+04   0.215E+01 -.969E+00 0.248E+01   0.136E-02 -.220E-02 -.593E-02
   -.464E+02 0.791E+01 0.842E+03   0.456E+02 -.809E+01 -.841E+03   0.294E+00 0.342E+00 -.355E+00   -.260E-03 -.334E-02 -.136E-01
   -.194E+02 -.548E+01 0.789E+03   0.196E+02 0.589E+01 -.788E+03   -.939E+00 0.215E+00 -.226E+00   0.448E-04 -.189E-02 -.119E-01
   -.565E+02 -.204E+02 -.531E+03   0.573E+02 0.207E+02 0.531E+03   -.828E+00 -.231E+00 0.299E+00   0.547E-03 -.195E-02 -.156E-01
   0.251E+02 -.596E+02 -.521E+03   -.253E+02 0.598E+02 0.521E+03   0.229E+00 -.188E+00 0.522E+00   0.515E-03 -.304E-02 -.154E-01
   -.120E+02 0.493E+02 0.772E+03   0.119E+02 -.494E+02 -.772E+03   -.275E+00 -.150E+00 -.512E+00   0.126E-02 -.419E-04 -.132E-01
   0.233E+02 0.138E+02 0.802E+03   -.233E+02 -.139E+02 -.802E+03   0.903E+00 -.149E+00 0.984E-01   -.440E-03 0.610E-03 -.146E-01
   0.430E+02 0.357E+02 -.559E+03   -.434E+02 -.362E+02 0.559E+03   0.320E+00 0.455E+00 -.102E+00   -.103E-03 -.131E-02 -.164E-01
   -.435E+02 0.322E+02 -.544E+03   0.439E+02 -.323E+02 0.545E+03   -.468E+00 0.163E+00 -.985E+00   0.145E-02 -.224E-02 -.161E-01
   -.484E+02 0.686E+02 -.535E+03   0.487E+02 -.690E+02 0.534E+03   -.330E+00 0.390E+00 0.343E+00   0.206E-03 -.193E-02 -.155E-01
   0.112E+02 0.341E+02 0.263E+04   -.112E+02 -.342E+02 -.263E+04   0.249E+00 0.271E+00 -.962E+00   0.140E-02 -.298E-02 -.188E-02
   0.815E+01 0.192E+03 -.234E+04   -.779E+01 -.195E+03 0.234E+04   -.328E+00 0.331E+01 0.101E+01   -.991E-03 0.188E-02 -.671E-02
   -.109E+02 0.188E+01 0.266E+04   0.110E+02 -.211E+01 -.266E+04   -.449E+00 0.780E-01 -.105E+01   -.125E-02 0.187E-02 -.240E-02
   -.120E+03 -.835E+02 -.234E+04   0.123E+03 0.852E+02 0.234E+04   -.224E+01 -.166E+01 0.750E+00   0.267E-03 0.401E-02 -.877E-02
   0.126E+02 -.310E+02 0.262E+04   -.127E+02 0.311E+02 -.261E+04   0.259E+00 -.235E+00 -.144E+01   0.777E-03 0.139E-03 -.830E-03
   0.261E+02 -.118E+02 -.223E+04   -.260E+02 0.118E+02 0.223E+04   -.606E-01 -.885E-02 0.694E+00   -.137E-03 0.198E-02 -.784E-02
   0.101E+02 -.222E+02 0.264E+04   -.101E+02 0.217E+02 -.264E+04   -.309E-01 0.294E+00 -.156E+01   0.295E-02 -.188E-02 -.155E-02
   0.282E+01 0.252E+01 -.227E+04   -.281E+01 -.233E+01 0.227E+04   -.416E-01 -.183E+00 0.475E+00   0.191E-02 0.386E-02 -.813E-02
   -.260E+02 0.859E+02 -.591E+03   0.262E+02 -.861E+02 0.591E+03   -.267E+00 0.245E+00 0.636E+00   -.369E-03 0.481E-02 -.186E-01
   0.266E+02 -.457E+02 0.107E+04   -.268E+02 0.455E+02 -.107E+04   0.880E-01 0.423E-01 -.215E+00   0.117E-04 0.130E-02 -.153E-01
   -.686E+02 -.132E+02 -.589E+03   0.686E+02 0.131E+02 0.589E+03   0.280E-01 0.621E-01 -.640E+00   -.207E-02 0.320E-02 -.185E-01
   0.791E+02 -.758E+02 -.585E+03   -.794E+02 0.761E+02 0.584E+03   0.286E+00 -.271E+00 0.620E+00   0.127E-02 0.267E-02 -.190E-01
   -.431E+02 -.102E+02 -.622E+03   0.430E+02 0.102E+02 0.621E+03   0.820E-01 0.250E-01 0.618E+00   -.533E-03 -.448E-02 -.205E-01
   0.240E+02 0.105E+02 0.105E+04   -.239E+02 -.105E+02 -.105E+04   -.122E+00 -.362E-01 0.196E+00   -.454E-03 0.181E-02 -.208E-01
   0.562E+02 -.132E+01 -.626E+03   -.564E+02 0.111E+01 0.626E+03   0.154E+00 0.219E+00 0.654E+00   -.202E-02 -.237E-02 -.207E-01
   -.419E+02 0.576E+02 0.106E+04   0.420E+02 -.575E+02 -.106E+04   -.431E+00 -.127E+00 -.877E-01   -.341E-03 0.183E-03 -.186E-01
   0.489E+01 -.538E+02 -.185E+04   -.526E+01 0.559E+02 0.188E+04   0.358E+00 -.203E+01 -.266E+02   0.462E-04 -.117E-02 0.105E-02
   0.679E+02 -.318E+01 -.193E+04   -.671E+02 0.307E+01 0.196E+04   -.795E+00 0.136E+00 -.284E+02   -.926E-03 0.118E-02 0.107E-02
   -.806E+01 0.116E+01 -.188E+04   0.901E+01 -.169E+01 0.191E+04   -.950E+00 0.557E+00 -.266E+02   -.774E-03 -.322E-02 0.164E-02
   -.451E+02 0.552E+02 -.193E+04   0.465E+02 -.531E+02 0.196E+04   -.135E+01 -.205E+01 -.281E+02   0.145E-02 0.266E-02 0.799E-03
   -.524E+01 -.226E+02 -.193E+04   0.571E+01 0.185E+02 0.196E+04   -.447E+00 0.411E+01 -.288E+02   0.454E-03 0.928E-03 0.720E-03
   0.370E+01 -.989E+00 0.136E+03   0.391E-12 -.302E-12 0.387E-11   -.370E+01 0.995E+00 -.135E+03   0.189E-03 0.419E-02 -.630E+00

 POSITION                                       TOTAL-FORCE (eV/Angst)
     -5.03208      8.74992      2.05921        -0.445447      0.024529     -0.217799
      0.02301      0.01719      8.10490         0.000748      0.038383     -0.026497
      0.00574      8.72607      2.04466         0.264119      0.092730      0.792716
      0.02172      8.63956      8.05314        -0.017592      0.023849     -0.011950
      2.47665      8.72592      2.00821        -0.384952      0.176869      0.847505
      2.56807      8.72508      8.12582        -0.010560      0.007143      0.006555
      1.23891      2.21748      2.05880         0.457780     -0.323094     -0.298540
      1.26524      2.17863      8.12559         0.029533      0.005832      0.034650
      0.08074      1.41419      4.05321        -0.722179      0.394188      0.327059
      2.49330      1.45451      4.14829         0.528401      0.244802     -0.845048
      1.29813      0.73097      6.16635        -0.013864     -0.017834     -0.000833
      5.06166      1.44930      4.13498        -0.364131      0.037836     -0.869121
      3.81613      0.76899      6.11925        -0.011357      0.014532      0.006241
      7.51557      1.45812      4.11001         0.464129     -0.186726     -0.827923
      6.27509      0.74109      6.12117         0.043925     -0.003364      0.018475
     -2.55062      4.47399      2.00995         0.305843     -0.698185      0.110631
     -2.52118      4.40617      7.99802        -0.010964      0.001801     -0.012307
      0.03014      4.42905      2.07020        -0.209767     -0.360352     -0.056891
      0.01954      4.29586      8.17265         0.006366      0.002787      0.001991
      2.50847      4.40516      2.07435         0.210104     -0.259111     -0.172312
      2.53521      4.35832      8.01985         0.004537      0.012384     -0.026148
      1.32139      3.64145      4.02771        -0.151855      0.508502      0.591377
      5.08382      4.44890      2.04815        -0.485824     -0.854967     -0.418609
      5.06255      4.34311      8.41852        -0.015526     -0.016305     -0.019434
      3.79377      3.69800      4.13071        -0.347011     -0.409645     -0.199346
      2.57272      2.88297      6.09312        -0.000601      0.009992      0.017730
      6.25293      3.64956      4.08305         0.886207     -0.333901      0.086357
      5.07131      3.00067      6.21705        -0.016955     -0.018643     -0.014951
      6.25194      6.54167      2.03547         0.463732      0.599667     -0.222491
     -3.75154      6.62886      8.25708         0.008282      0.012582      0.004091
     -1.23133      6.52951      2.06361        -0.120633      0.663617     -0.272845
     -1.24929      6.55796      8.26185        -0.006222      0.017517      0.012131
     -2.52172      5.87475      4.08745         0.532557     -0.433871      0.254396
      1.28426      6.55944      2.07409        -0.140919      0.552711      0.039956
      1.29483      6.53490      8.16636         0.005012      0.014499      0.014576
     -0.00626      5.79145      4.04458         0.676150      0.043926      0.339919
     -1.22562      5.08053      6.09116         0.008864     -0.008329     -0.029346
      3.77628      6.55571      2.00000        -0.112148      0.473381      0.258247
      3.75057      6.58939      8.20444        -0.020388     -0.018042      0.009137
      2.52387      5.78801      4.07310        -0.496728      0.147407      0.175387
      5.06734      5.79704      4.10517        -0.764424      0.624416      0.325335
      3.77104      5.11761      6.14447        -0.013285      0.016067     -0.002544
      6.29432      5.13755      6.14865         0.011531     -0.006248     -0.000474
     -3.76296      8.02446      4.11956        -0.390558     -0.266960     -0.142261
     -1.33707      8.05044      4.10308         0.901953     -0.212152     -0.079057
     -2.50342      7.30259      6.24706        -0.018672      0.043418     -0.003699
      2.48639      7.27573      6.10844        -0.001893      0.003539     -0.005996
      5.01256      7.32595      6.13154        -0.003076     -0.007918     -0.007417
     -2.52690      8.74056      2.03303         0.229936      0.150150      0.212794
     -2.48609      8.72661      8.24838         0.029115      0.034947     -0.008416
     -1.24953      2.18697      2.05404        -0.345224     -0.152320      0.314286
     -1.19765      2.21008      8.10258        -0.025201     -0.003913      0.007640
      3.77687      2.20348      2.02824         0.122758     -0.161396      0.613252
      3.79747      2.14247      8.27956         0.013645      0.008391     -0.011374
      6.31052      2.19548      2.03586        -0.006233     -0.241273      0.178505
      6.36852      2.10902      8.26635        -0.029556      0.009691     -0.013581
      8.83655      0.72690      6.07612        -0.018921      0.004793      0.003094
     -1.27338      3.65234      4.08853        -0.093080     -0.136312     -0.302593
      0.02299      2.89897      6.08348         0.005655      0.017513     -0.016341
      7.56663      2.89167      6.09447        -0.004890      0.014530     -0.015997
      1.26000      5.08884      6.08095         0.008719     -0.005240     -0.006447
      1.25660      8.01495      4.09194        -0.041113     -0.012433     -0.213112
     -0.00659      7.26235      6.08721        -0.024977      0.005907     -0.004816
      3.80919      8.00883      4.09175        -0.356295     -0.032669     -0.333123
      5.03723      5.93594      9.35817        -0.005537      0.011111      0.028085
      2.33788      1.46674      9.34289        -0.007901      0.023085      0.001391
      0.04665      5.73724      9.32067        -0.001292      0.024475      0.043539
      7.78821      1.30843      9.29578         0.019387      0.033629      0.009938
      5.10306      2.87201      9.42182         0.018763      0.034073      0.022653
    total drift:                               -0.002757      0.009986     -0.003603

  FREE ENERGIE OF THE ION-ELECTRON SYSTEM (eV)
  free  energy   TOTEN  =      -505.86366985 eV

  energy  without entropy=     -505.90105762  energy(sigma->0) =     -505.87613244

 stress matrix after NEB project (eV)
    -35.17765      1.01037      0.26382
      1.01037    -34.04941      1.98056
      0.26382      1.98056     -3.88127
  FORCES: max atom, RMS     0.049964    0.021686
  FORCE total and by dimension    0.180141    0.043925
  Stress total and by dimension   49.213006   35.177650

 reached required accuracy - stopping structural energy minimisation
 writing wavefunctions

 total charge

[...]

 magnetization (x)

# of ion       s       p       d       tot
    1        0.007  -0.007   2.700   2.700
    2        0.003  -0.003   2.811   2.811
    3       -0.023  -0.015  -0.113  -0.151
    4        0.018   0.012   2.765   2.795
    5       -0.026  -0.018  -0.192  -0.236
    6        0.003  -0.013   2.087   2.077
    7        0.008  -0.009   2.597   2.597
    8       -0.000   0.001   1.853   1.853
    9       -0.005  -0.022   2.461   2.434
   10        0.001  -0.012   2.123   2.112
   11       -0.004  -0.023   2.322   2.295
   12        0.004  -0.004   2.134   2.133
   13       -0.027  -0.039  -1.794  -1.860
   14        0.010   0.002   2.528   2.540
   15       -0.032  -0.049  -2.067  -2.148
   16        0.000  -0.010   2.757   2.747
   17       -0.000  -0.002   2.851   2.848
   18        0.009  -0.012   2.429   2.426
   19        0.006   0.000   2.389   2.395
   20        0.003  -0.011   2.344   2.336
   21        0.007  -0.003   2.718   2.722
   22       -0.023  -0.036  -1.572  -1.631
   23       -0.002  -0.018   2.676   2.656
   24        0.001   0.002   2.065   2.068
   25       -0.003  -0.019   1.937   1.916
   26       -0.030  -0.045  -2.023  -2.097
   27       -0.011  -0.034   2.509   2.464
   28        0.010   0.003   2.306   2.319
   29       -0.009  -0.027   2.635   2.599
   30        0.002  -0.011   2.388   2.379
   31        0.005  -0.015   2.432   2.422
   32        0.004  -0.009   2.391   2.386
   33       -0.012  -0.040   2.418   2.366
   34        0.014  -0.002   2.284   2.296
   35        0.002  -0.014   2.423   2.411
   36       -0.032  -0.043  -2.050  -2.125
   37       -0.001  -0.023   2.474   2.451
   38        0.007  -0.015   2.548   2.540
   39       -0.004  -0.021   2.259   2.234
   40       -0.033  -0.048  -1.961  -2.042
   41       -0.009  -0.037   2.424   2.377
   42       -0.007  -0.034   2.051   2.010
   43       -0.014  -0.047   2.487   2.426
   44       -0.014  -0.041   2.400   2.346
   45        0.002  -0.012   2.271   2.261
   46       -0.000  -0.026   2.371   2.345
   47        0.008  -0.001   2.365   2.372
   48       -0.013  -0.045   2.566   2.508
   49       -0.023  -0.030   0.627   0.574
   50       -0.023  -0.027   0.291   0.242
   51       -0.024  -0.023   0.650   0.603
   52       -0.016  -0.013   0.465   0.435
   53       -0.017  -0.017   0.673   0.639
   54       -0.004  -0.000  -0.078  -0.083
   55       -0.014  -0.009   0.622   0.599
   56       -0.007  -0.005  -0.033  -0.045
   57       -0.022  -0.041   0.654   0.591
   58       -0.016  -0.034   0.527   0.477
   59       -0.008  -0.017   0.292   0.267
   60       -0.012  -0.033   0.524   0.479
   61       -0.008  -0.027   0.353   0.318
   62       -0.008  -0.016   0.240   0.217
   63       -0.014  -0.037   0.541   0.491
   64       -0.021  -0.042   0.605   0.542
   65        0.003   0.071   0.000   0.073
   66        0.001   0.015   0.000   0.016
   67        0.003   0.075   0.000   0.079
   68        0.002   0.041   0.000   0.043
   69        0.002   0.022   0.000   0.024
tot         -0.428  -1.037  91.729  90.263