 vasp.5.4.4.18Apr17-6-g9f103f2a35 (build Dec 15 2018 21:27:11) complex

 executed on             LinuxIFC date 2022.03.01  18:59:58

 INCAR:
 POTCAR:    PAW_PBE Ni 02Aug2007
 POTCAR:    PAW_PBE Fe 06Sep2000
 POTCAR:    PAW_PBE O 08Apr2002
 POTCAR:    PAW_PBE H 15Jun2001

 POTCAR:    PAW_PBE Ni 02Aug2007
   VRHFIN =Ni:

   TITEL  = PAW_PBE Ni 02Aug2007
   POMASS =   58.690; ZVAL   =   10.000    mass and valenz
   ENMAX  =  269.532; ENMIN  =  202.149 eV

 POTCAR:    PAW_PBE Fe 06Sep2000
   VRHFIN =Fe:  d7 s1

   TITEL  = PAW_PBE Fe 06Sep2000
   POMASS =   55.847; ZVAL   =    8.000    mass and valenz
   ENMAX  =  267.882; ENMIN  =  200.911 eV

 POTCAR:    PAW_PBE O 08Apr2002
   VRHFIN =O: s2p4

   TITEL  = PAW_PBE O 08Apr2002
   POMASS =   16.000; ZVAL   =    6.000    mass and valenz
   ENMAX  =  400.000; ENMIN  =  300.000 eV

 POTCAR:    PAW_PBE H 15Jun2001
   VRHFIN =H: ultrasoft test

   TITEL  = PAW_PBE H 15Jun2001
   POMASS =    1.000; ZVAL   =    1.000    mass and valenz
   ENMAX  =  250.000; ENMIN  =  200.000 eV

 Optimization of the real space projectors (new method)

 maximal supplied QI-value         = 16.25
 optimisation between [QCUT,QGAM] = [ 11.54, 23.24] = [ 37.28,151.24] Ry
 Optimized for a Real-space Cutoff    1.45 Angstroem

   l    n(q)    QCUT    max X(q) W(low)/X(q) W(high)/X(q)  e(spline)
   2      9    11.539    60.317    0.19E-03    0.47E-04    0.16E-06
   2      9    11.539    55.921    0.19E-03    0.48E-04    0.16E-06
   0     10    11.539    51.690    0.80E-04    0.50E-04    0.24E-06
   0     10    11.539    30.015    0.73E-04    0.45E-04    0.22E-06
   1     10    11.539    18.849    0.87E-04    0.16E-03    0.71E-07
   1     10    11.539    14.624    0.73E-04    0.13E-03    0.64E-07
 Optimization of the real space projectors (new method)

[...]

   l    n(q)    QCUT    max X(q) W(low)/X(q) W(high)/X(q)  e(spline)
   0      8    11.635    20.381    0.10E-03    0.33E-03    0.24E-06
   0      8    11.635    15.268    0.11E-03    0.35E-03    0.26E-06
   1      7    11.635     5.964    0.24E-03    0.31E-03    0.30E-06
   1      7    11.635     5.382    0.22E-03    0.25E-03    0.26E-06
 Optimization of the real space projectors (new method)

 maximal supplied QI-value         = 34.20
 optimisation between [QCUT,QGAM] = [ 11.63, 23.26] = [ 37.87,151.49] Ry
 Optimized for a Real-space Cutoff    1.21 Angstroem

   l    n(q)    QCUT    max X(q) W(low)/X(q) W(high)/X(q)  e(spline)
   0      8    11.629    19.460    0.17E-03    0.34E-03    0.21E-06
   0      8    11.629    12.209    0.16E-03    0.33E-03    0.21E-06
   1      8    11.629     4.655    0.18E-03    0.16E-03    0.26E-06
  PAW_PBE Ni 02Aug2007                  :
  PAW_PBE Fe 06Sep2000                  :
  PAW_PBE O 08Apr2002                   :
  PAW_PBE H 15Jun2001                   :

 POSCAR: POSCAR
  positions in direct lattice
  velocities in cartesian coordinates
 exchange correlation table for  LEXCH =        8
   RHO(1)=    0.500       N(1)  =     2000
   RHO(2)=  100.500       N(2)  =     4000

 VTST: version 3.2, (02/03/18)

 CHAIN: initializing optimizer

 OPT: Using VASP Conjugate-Gradient optimizer
 CHAIN: Read ICHAIN            0

 POSCAR: POSCAR
  positions in direct lattice
  velocities in cartesian coordinates

 ion  position               nearest neighbor table
   1  0.999  0.001  0.287-  41 2.45  18 2.47  50 2.47  47 2.48  49 2.48   5 2.49   8 2.49  33 2.50
                             2 2.51   4 2.51  26 2.51   6 2.53
   2  0.249  0.001  0.285-  51 2.45  44 2.45  11 2.45  50 2.47  41 2.50   9 2.50   1 2.51  26 2.51
                             3 2.51   6 2.51  27 2.52  43 2.55
   3  0.498  0.999  0.287-  64 2.46  14 2.46  43 2.46  51 2.46  17 2.48  45 2.49  27 2.50   4 2.51
                             2 2.51   9 2.51  30 2.52  12 2.53
   4  0.748  0.999  0.286-  16 2.44  48 2.45  17 2.46  18 2.48  30 2.49  64 2.50   3 2.51   1 2.51
                             5 2.51  47 2.52  33 2.53  12 2.53
   5  0.999  0.249  0.287-  60 2.43  16 2.43  22 2.48  18 2.48   1 2.49  52 2.51   6 2.51  19 2.51
                             4 2.51  21 2.52  12 2.52   8 2.53
   6  0.252  0.253  0.287-  11 2.41  56 2.47  52 2.48  22 2.48   9 2.50   5 2.51   2 2.51  50 2.52
                             1 2.53  53 2.53   8 2.54  55 2.55
   7  0.083  0.166  0.096-  50 2.47  15 2.50  40 2.50  18 2.50  54 2.50  10 2.50  46 2.51  22 2.51
                            20 2.51
   8  0.080  0.161  0.385-  67 1.85  47 2.42  41 2.43   1 2.49  11 2.50  16 2.51   5 2.53   6 2.54
                            21 2.56  55 2.57
   9  0.499  0.250  0.286-  59 2.44  11 2.44  56 2.45   6 2.50  53 2.50  51 2.50   2 2.50  12 2.50
                             3 2.51  14 2.53  23 2.54  25 2.54
  10  0.333  0.167  0.096-  13 2.50  56 2.50   7 2.50  24 2.51  40 2.51  42 2.51  50 2.51  54 2.52
                            51 2.52
  11  0.332  0.166  0.379-   6 2.41   9 2.44   2 2.45  41 2.48  55 2.49  25 2.49   8 2.50  14 2.51
                            43 2.52
  12  0.750  0.252  0.288-  16 2.43  59 2.44  60 2.46  58 2.47  23 2.50  17 2.50   9 2.50  19 2.51
                            14 2.51   5 2.52   3 2.53   4 2.53
  13  0.582  0.167  0.097-  51 2.48  24 2.49  42 2.50  17 2.50  10 2.50  63 2.52  59 2.52  57 2.52
                            15 2.53
  14  0.578  0.159  0.384-  65 1.84  43 2.42  64 2.42   3 2.46  11 2.51  12 2.51  16 2.52   9 2.53
                            58 2.58  25 2.59
  15  0.834  0.167  0.096-  20 2.49  60 2.49  18 2.49  46 2.49   7 2.50  17 2.51  63 2.51  57 2.53
                            13 2.53
  16  0.832  0.164  0.379-  12 2.43   5 2.43   4 2.44  47 2.48  58 2.49  64 2.50   8 2.51  21 2.52
                            14 2.52
  17  0.666  0.083  0.193-   4 2.46  60 2.47  51 2.48   3 2.48  59 2.49  13 2.50  12 2.50  45 2.50
                            48 2.51  15 2.51  63 2.51  18 2.52
  18  0.916  0.082  0.192-  50 2.46   1 2.47  60 2.47   4 2.48   5 2.48  46 2.48  15 2.49  49 2.50
                            48 2.50   7 2.50  22 2.51  17 2.52
  19  0.002  0.501  0.286-  29 2.46  60 2.47  39 2.49  27 2.49  52 2.49  21 2.50  61 2.51  23 2.51
                            12 2.51   5 2.51  58 2.52  26 2.52
  20  0.081  0.416  0.096-  61 2.48  15 2.49  57 2.49  22 2.50  54 2.51  28 2.51   7 2.51  31 2.52
                            60 2.53
  21  0.080  0.417  0.384-  67 1.85  58 2.43  29 2.45  19 2.50  32 2.51  52 2.51  16 2.52   5 2.52
                             8 2.56  55 2.57
  22  0.166  0.334  0.192-  52 2.48   5 2.48   6 2.48  60 2.49  54 2.49  36 2.50  20 2.50  50 2.50
                             7 2.51  18 2.51  56 2.52  61 2.54
  23  0.753  0.503  0.289-  33 2.46  53 2.47  26 2.48  59 2.49  12 2.50  58 2.51  19 2.51  39 2.52
                             9 2.54  25 2.54  62 2.56  38 2.57
  24  0.584  0.416  0.096-  13 2.49  62 2.49  57 2.50  10 2.51  56 2.51  34 2.51  37 2.52  54 2.53
                            59 2.54
  25  0.578  0.417  0.385-  65 1.88  55 2.42  53 2.45  35 2.46  11 2.49   9 2.54  23 2.54  38 2.55
                            14 2.59  58 2.60
  26  1.000  0.751  0.287-  33 2.46  49 2.46  23 2.48  44 2.49  41 2.49  29 2.49  39 2.50   2 2.51
                            27 2.51   1 2.51  19 2.52  38 2.60
  27  0.249  0.750  0.285-  45 2.45  32 2.46  61 2.46  44 2.46  29 2.49  19 2.49   3 2.50  26 2.51
                            52 2.52   2 2.52  30 2.53  43 2.54
  28  0.084  0.668  0.095-  61 2.47  39 2.50  40 2.50  37 2.50  31 2.50  42 2.50  57 2.51  44 2.51
                            20 2.51
  29  0.084  0.663  0.381-  66 1.87  21 2.45  19 2.46  32 2.47  27 2.49  58 2.49  26 2.49  38 2.52
                            43 2.54  41 2.59
  30  0.501  0.749  0.287-  32 2.44  48 2.46  45 2.47   4 2.49  53 2.50  36 2.50  64 2.50   3 2.52
                            52 2.52  35 2.53  27 2.53  33 2.53
  31  0.333  0.667  0.094-  61 2.47  42 2.50  54 2.50  28 2.50  63 2.50  34 2.51  36 2.52  45 2.52
                            20 2.52
  32  0.332  0.665  0.378-  52 2.41  30 2.44  27 2.46  29 2.47  35 2.49  21 2.51  64 2.51  43 2.51
                            55 2.52
  33  0.753  0.749  0.288-  26 2.46  53 2.46  23 2.46  49 2.48  62 2.50   1 2.50  47 2.51  48 2.51
                            30 2.53   4 2.53  35 2.55  38 2.57
  34  0.583  0.667  0.095-  62 2.47  36 2.50  63 2.50  46 2.51  31 2.51  37 2.51  54 2.51  24 2.51
                            48 2.53
  35  0.578  0.661  0.385-  68 1.88  55 2.44  53 2.45  25 2.46  32 2.49  30 2.53  33 2.55  38 2.55
                            64 2.56  47 2.60
  36  0.417  0.582  0.191-  54 2.47  30 2.50  22 2.50  34 2.50  62 2.50  45 2.51  56 2.51  48 2.51
                            52 2.51  61 2.51  31 2.52  53 2.55
  37  0.834  0.668  0.095-  62 2.47  40 2.50  57 2.50  39 2.50  28 2.50  46 2.51  49 2.51  34 2.51
                            24 2.52
  38  0.836  0.668  0.389-  69 1.84  41 2.52  29 2.52  47 2.52  58 2.54  35 2.55  25 2.55  23 2.57
                            33 2.57  26 2.60
  39  0.917  0.583  0.191-  19 2.49  57 2.49  28 2.50  37 2.50  26 2.50  61 2.50  49 2.51  59 2.51
                            62 2.51  44 2.51  23 2.52  60 2.56
  40  0.083  0.917  0.095-  50 2.49  44 2.49  37 2.50  28 2.50   7 2.50  10 2.51  49 2.51  46 2.51
                            42 2.52
  41  0.083  0.921  0.381-  66 1.87   8 2.43   1 2.45  47 2.46  11 2.48  26 2.49   2 2.50  38 2.52
                            43 2.55  29 2.59
  42  0.334  0.917  0.095-  51 2.48  13 2.50  63 2.50  31 2.50  44 2.50  28 2.50  10 2.51  45 2.51
                            40 2.52
  43  0.336  0.918  0.383-  66 1.86  14 2.42  64 2.44   3 2.46  32 2.51  11 2.52  27 2.54  29 2.54
                             2 2.55  41 2.55
  44  0.167  0.835  0.191-   2 2.45  27 2.46  51 2.47  26 2.49  61 2.49  49 2.49  40 2.49  42 2.50
                            50 2.50  28 2.51  39 2.51  45 2.53
  45  0.417  0.832  0.192-  27 2.45  61 2.47  51 2.47  30 2.47   3 2.49  48 2.49  63 2.50  17 2.50
                            36 2.51  42 2.51  31 2.52  44 2.53
  46  0.832  0.917  0.096-  18 2.48  48 2.49  15 2.49  63 2.50  49 2.50   7 2.51  34 2.51  37 2.51
                            40 2.51
  47  0.838  0.920  0.383-  68 1.86   8 2.42  41 2.46   1 2.48  16 2.48  33 2.51   4 2.52  38 2.52
                            64 2.57  35 2.60
  48  0.666  0.833  0.192-   4 2.45  30 2.46  62 2.47  45 2.49  46 2.49  18 2.50  63 2.50  17 2.51
                            36 2.51  33 2.51  49 2.52  34 2.53
  49  0.917  0.833  0.192-  26 2.46  62 2.46  50 2.47  33 2.48   1 2.48  44 2.49  18 2.50  46 2.50
                            39 2.51  40 2.51  37 2.51  48 2.52
  50  0.162  0.082  0.191-  18 2.46   2 2.47   1 2.47   7 2.47  49 2.47  40 2.49  44 2.50  22 2.50
                            10 2.51   6 2.52  56 2.53  51 2.57
  51  0.416  0.078  0.192-   2 2.45   3 2.46  44 2.47  45 2.47  42 2.48  17 2.48  13 2.48   9 2.50
                            10 2.52  59 2.54  56 2.54  50 2.57
  52  0.249  0.499  0.288-  32 2.41   6 2.48  22 2.48  19 2.49   5 2.51  21 2.51  36 2.51  27 2.52
                            30 2.52  61 2.55  53 2.56  55 2.57
[...]
   0.495E+02 -.567E+02 -.262E+04   -.511E+02 0.579E+02 0.262E+04   0.158E+01 -.114E+01 0.686E+00   0.468E-03 -.230E-03 -.358E-02
   -.471E+02 -.625E+02 0.116E+04   0.473E+02 0.625E+02 -.116E+04   -.664E-01 -.106E-01 -.468E+00   0.754E-03 -.925E-03 -.114E-01
   0.537E+02 0.597E+02 -.666E+03   -.537E+02 -.593E+02 0.666E+03   -.391E-01 -.451E+00 0.292E+00   -.625E-03 0.107E-03 -.115E-01
   0.637E+01 0.222E+02 0.293E+04   -.644E+01 -.222E+02 -.293E+04   0.695E-02 0.401E-01 -.155E+01   -.780E-03 0.114E-03 -.341E-02
   0.156E+03 -.123E+01 -.259E+04   -.157E+03 0.197E+01 0.259E+04   0.181E+01 -.748E+00 0.909E+00   -.115E-02 0.175E-03 -.382E-02
   -.425E+01 0.475E+02 -.666E+03   0.397E+01 -.477E+02 0.666E+03   0.278E+00 0.143E+00 0.377E+00   -.150E-03 0.543E-03 -.118E-01
   -.506E+02 0.607E+02 -.640E+03   0.505E+02 -.607E+02 0.639E+03   0.672E-01 0.116E-02 0.442E+00   0.548E-04 0.493E-04 -.119E-01
   -.403E+01 0.653E+02 0.302E+04   0.410E+01 -.653E+02 -.302E+04   0.932E-01 0.799E-02 -.140E+01   -.531E-04 0.155E-02 -.355E-02
   -.846E+02 0.178E+03 -.253E+04   0.851E+02 -.180E+03 0.253E+04   -.497E+00 0.200E+01 0.720E+00   0.186E-03 -.721E-03 -.360E-02
   0.300E+01 0.933E+02 -.718E+03   -.301E+01 -.933E+02 0.717E+03   0.172E-01 -.264E-01 0.627E+00   0.516E-03 -.571E-03 -.114E-01
   -.275E+02 0.339E+02 0.303E+04   0.275E+02 -.340E+02 -.303E+04   -.225E+00 0.150E-01 -.113E+01   0.855E-05 0.116E-03 -.332E-02
   -.576E+02 0.459E+02 -.264E+04   0.578E+02 -.459E+02 0.264E+04   -.194E+00 0.137E-01 0.275E+01   0.708E-03 -.804E-03 -.369E-02
   0.559E+02 0.882E+02 -.693E+03   -.555E+02 -.884E+02 0.693E+03   -.393E+00 0.156E+00 0.268E+00   -.456E-03 -.374E-04 -.115E-01
   0.200E+02 0.516E+02 0.302E+04   -.201E+02 -.517E+02 -.302E+04   0.231E+00 0.112E-01 -.126E+01   0.462E-03 -.350E-03 -.309E-02
   0.112E+03 0.156E+03 -.260E+04   -.113E+03 -.158E+03 0.260E+04   0.254E+00 0.198E+01 0.898E+00   -.607E-03 -.225E-03 -.366E-02
   -.281E+02 0.102E+03 0.115E+04   0.282E+02 -.102E+03 -.115E+04   -.173E+00 0.155E+00 -.603E+00   0.669E-03 -.457E-03 -.114E-01
   0.117E+02 0.790E+02 0.302E+04   -.118E+02 -.790E+02 -.302E+04   -.996E-01 0.532E-01 -.116E+01   -.397E-03 0.849E-03 -.350E-02
   0.326E+02 0.695E+02 -.249E+04   -.323E+02 -.691E+02 0.249E+04   -.292E+00 -.424E+00 0.438E+00   -.276E-03 0.203E-03 -.297E-02
   0.109E+02 0.123E+03 0.122E+04   -.109E+02 -.123E+03 -.122E+04   -.565E-01 0.260E+00 -.372E+00   -.160E-03 0.815E-03 -.118E-01
   -.150E+02 -.314E+02 0.303E+04   0.151E+02 0.315E+02 -.303E+04   -.941E-02 -.117E-01 -.162E+01   0.350E-03 0.736E-03 -.331E-02
   0.529E+02 -.131E+03 -.255E+04   -.545E+02 0.133E+03 0.255E+04   0.162E+01 -.141E+01 0.940E+00   -.220E-03 0.512E-03 -.402E-02
   -.325E+02 -.352E+02 0.302E+04   0.326E+02 0.353E+02 -.302E+04   -.224E+00 -.379E-01 -.130E+01   -.146E-02 0.242E-03 -.339E-02
   -.170E+03 -.681E+02 -.265E+04   0.172E+03 0.693E+02 0.265E+04   -.197E+01 -.121E+01 0.616E+00   0.150E-03 0.599E-04 -.356E-02
   -.264E+02 -.148E+02 0.120E+04   0.264E+02 0.148E+02 -.120E+04   -.397E-01 -.568E-01 -.381E+00   -.326E-03 0.101E-02 -.127E-01
   0.200E+01 0.134E+02 0.120E+04   -.179E+01 -.133E+02 -.120E+04   -.976E-01 -.932E-01 -.408E+00   -.324E-03 -.762E-04 -.119E-01
   0.349E+02 0.368E+01 0.304E+04   -.350E+02 -.366E+01 -.304E+04   0.193E+00 -.350E-01 -.126E+01   0.110E-02 0.299E-03 -.325E-02
   -.562E+01 -.950E+02 -.261E+04   0.699E+01 0.962E+02 0.261E+04   -.140E+01 -.122E+01 0.102E+01   -.465E-03 0.193E-03 -.360E-02
   0.186E+02 0.579E+02 0.119E+04   -.186E+02 -.578E+02 -.119E+04   0.857E-01 -.137E+00 -.448E+00   0.577E-03 -.433E-03 -.117E-01
   0.478E+01 0.288E+02 0.119E+04   -.483E+01 -.288E+02 -.119E+04   0.172E-01 -.126E-01 -.194E+00   0.108E-03 0.810E-03 -.124E-01
   -.631E+02 -.781E+02 0.957E+03   0.633E+02 0.783E+02 -.957E+03   -.146E+00 -.103E+00 -.351E+00   -.155E-03 0.237E-03 -.971E-02
   0.239E+02 -.913E+02 0.958E+03   -.241E+02 0.916E+02 -.958E+03   0.160E+00 -.248E+00 -.411E+00   -.915E-03 -.116E-03 -.961E-02
   -.525E+02 0.158E+02 -.556E+03   0.527E+02 -.157E+02 0.556E+03   -.279E+00 -.383E-01 0.342E+00   0.770E-03 -.785E-03 -.892E-02
   0.465E+02 0.444E+02 -.544E+03   -.465E+02 -.444E+02 0.545E+03   -.767E-02 -.554E-02 -.746E+00   -.733E-03 -.449E-03 -.934E-02
   -.295E+02 0.122E+02 0.238E+04   0.295E+02 -.121E+02 -.238E+04   0.900E-02 -.284E-01 -.273E+01   0.188E-03 -.420E-03 -.234E-02
   -.660E+02 -.651E+02 -.212E+04   0.667E+02 0.656E+02 0.212E+04   -.752E+00 -.551E+00 0.151E+01   -.198E-03 0.851E-05 -.306E-02
   -.253E+02 -.265E+02 0.928E+03   0.255E+02 0.265E+02 -.928E+03   -.269E+00 0.473E-01 -.345E+00   -.512E-03 -.106E-03 -.899E-02
   0.118E+02 0.322E+02 0.238E+04   -.118E+02 -.323E+02 -.238E+04   -.572E-01 0.736E-01 -.298E+01   -.236E-03 0.251E-03 -.280E-02
   -.101E+03 0.563E+01 -.207E+04   0.102E+03 -.575E+01 0.207E+04   -.670E+00 0.116E+00 0.122E+01   0.723E-03 0.384E-04 -.273E-02
   0.370E+02 -.279E+02 0.942E+03   -.369E+02 0.278E+02 -.942E+03   -.148E-01 0.197E+00 -.387E+00   -.850E-03 -.740E-04 -.935E-02
   0.324E+02 -.619E+02 0.946E+03   -.328E+02 0.619E+02 -.946E+03   0.360E+00 -.429E-01 -.296E+00   0.786E-03 -.477E-03 -.910E-02
   -.144E+02 0.719E+02 0.957E+03   0.144E+02 -.718E+02 -.957E+03   0.186E-01 -.593E-01 -.395E+00   0.341E-03 0.631E-04 -.930E-02
   0.258E+02 0.115E+03 0.946E+03   -.260E+02 -.115E+03 -.946E+03   0.214E+00 0.281E+00 -.425E+00   -.777E-03 0.119E-04 -.946E-02
   0.992E+01 -.117E+02 0.244E+04   -.996E+01 0.117E+02 -.243E+04   0.163E-01 0.694E-01 -.274E+01   0.168E-04 -.375E-03 -.272E-02
   0.975E+02 -.368E+02 -.212E+04   -.983E+02 0.373E+02 0.212E+04   0.850E+00 -.483E+00 0.895E+00   0.469E-03 -.178E-03 -.283E-02
   -.218E+02 0.515E+02 -.211E+04   0.202E+02 -.514E+02 0.214E+04   0.159E+01 -.181E+00 -.275E+02   0.212E-03 0.324E-03 0.167E-02
   -.104E+03 -.443E+02 -.210E+04   0.106E+03 0.455E+02 0.212E+04   -.264E+01 -.123E+01 -.222E+02   -.194E-03 0.114E-03 0.167E-02
   -.262E+02 -.324E+02 -.214E+04   0.245E+02 0.315E+02 0.217E+04   0.169E+01 0.852E+00 -.276E+02   0.644E-04 0.570E-03 0.107E-02
   0.978E+02 -.365E+02 -.212E+04   -.957E+02 0.354E+02 0.215E+04   -.209E+01 0.114E+01 -.276E+02   -.319E-03 0.286E-03 0.108E-02
   0.152E+03 0.128E+03 -.195E+04   -.180E+03 -.149E+03 0.195E+04   0.281E+02 0.214E+02 0.489E+01   -.113E-03 0.241E-04 0.203E-02
   -.860E+02 -.703E+02 -.198E+04   0.827E+02 0.726E+02 0.203E+04   0.340E+01 -.220E+01 -.457E+02   0.155E-03 0.167E-03 0.229E-02
   -.579E+02 -.344E+02 -.307E+03   0.629E+02 0.372E+02 0.304E+03   -.506E+01 -.288E+01 0.364E+01   -.178E-05 0.109E-04 0.370E-03
   -.253E+02 -.176E+02 0.153E+03   -.341E-12 -.604E-12 0.909E-12   0.253E+02 0.176E+02 -.153E+03   0.150E-03 0.193E-02 -.453E+00

 POSITION                                       TOTAL-FORCE (eV/Angst)
     10.01546      0.00800      6.08212        -0.012521     -0.005944      0.007947
      2.49358      0.00914      6.03659         0.005461      0.006166     -0.024054
     -0.01292      8.67694      6.09089        -0.007667      0.009420     -0.014260
      2.49409      8.67068      6.06749         0.005226      0.014327     -0.013554
      8.77290      2.16064      6.08129        -0.015067     -0.010368     -0.023412
      1.25630      2.19600      6.08906         0.002767     -0.016116     -0.032860
     -0.00285      1.44433      2.02730        -0.081154     -0.007720      0.197472
     -0.00630      1.39948      8.14970        -0.020396      0.003873     -0.008675
      3.75255      2.17323      6.06991         0.015795      0.004931     -0.032588
      2.50178      1.44890      2.02869         0.106957     -0.062770      0.196493
      2.49029      1.44536      8.02368         0.015526      0.014796     -0.007816
      6.25643      2.18832      6.10574         0.013577     -0.010296     -0.033937
      5.00042      1.45188      2.04906        -0.041816      0.047939      0.231785
      5.00017      1.37666      8.12676         0.004632     -0.010271     -0.006838
      7.52680      1.44774      2.04372        -0.005363      0.022071      0.314802
      7.51784      1.42638      8.03280        -0.002914     -0.007236     -0.000331
      6.25724      0.72120      4.08068         0.025997     -0.050091     -0.221085
      8.77725      0.71231      4.06936        -0.038603     -0.022455     -0.180389
     -2.49134      4.34807      6.05962         0.008336      0.004743      0.006083
     -1.27467      3.61315      2.03306        -0.040363      0.138355      0.207072
     -1.28560      3.62191      8.12941        -0.028365     -0.005532     -0.011714
     -0.00860      2.89985      4.06991         0.088061      0.018791     -0.195794
      5.02674      4.36569      6.11501        -0.003348     -0.008605     -0.034844
      3.76492      3.61380      2.03274        -0.057231      0.107189      0.137733
      3.71005      3.61705      8.15754         0.000448     -0.005019      0.004129
      6.25907      6.51999      6.07636         0.001635      0.006299     -0.029407
     -1.25921      6.51088      6.03731         0.005995     -0.012537     -0.003346
     -2.50964      5.80144      2.00867         0.157430     -0.088138      0.341764
     -2.47869      5.75939      8.06945         0.008121     -0.017770      0.006484
      1.26816      6.50752      6.07484         0.002291     -0.024556     -0.015921
     -0.00666      5.79426      2.00000        -0.138779     -0.091174      0.253541
     -0.00685      5.77745      8.01769        -0.008991      0.020013     -0.007325
      3.79585      6.50076      6.10229        -0.020073     -0.001010     -0.016539
      2.50308      5.78909      2.00257         0.200940     -0.091678      0.275759
      2.48227      5.74406      8.15400         0.006470     -0.011774      0.012243
      1.25945      5.05378      4.04326        -0.003716     -0.031367     -0.124055
      5.01445      5.79798      2.01253        -0.215484     -0.049589      0.281497
      5.03246      5.79991      8.24817        -0.010772     -0.015119     -0.004296
      6.27138      5.06452      4.04277        -0.065543     -0.065146     -0.061785
     -3.76517      7.96148      2.01691         0.035028      0.062331      0.278710
     -3.78118      7.99770      8.07860         0.018971     -0.014805     -0.004191
     -1.24654      7.96318      2.02107        -0.054645      0.007412      0.206732
     -1.23014      7.97108      8.11218        -0.003088     -0.003442      0.013593
     -2.51584      7.25277      4.05487        -0.078719     -0.042496     -0.184743
      0.00963      7.22591      4.06957         0.117255     -0.000980     -0.213966
      3.74757      7.96401      2.04130         0.094074     -0.005504      0.222280
      3.78834      7.99294      8.12378        -0.016477      0.004875     -0.007515
      2.50222      7.23652      4.07555         0.003972     -0.034580     -0.198807
      5.01801      7.23500      4.07176        -0.025342     -0.028405     -0.032922
      1.20950      0.71304      4.05362         0.011652      0.064071     -0.286082
      3.78049      0.67792      4.06351        -0.019934      0.017304     -0.300343
      0.00046      4.32973      6.09336        -0.027759      0.004710     -0.036631
      2.55743      4.37054      6.13196         0.021984      0.003971     -0.019530
      1.23098      3.62224      2.02941        -0.001276      0.063395      0.150531
      1.28731      3.61905      8.20245         0.015117      0.005913     -0.006097
      2.51334      2.87806      4.07938        -0.007612      0.013962     -0.173212
      6.26024      3.63306      2.00212         0.000389     -0.027085      0.200296
      6.30722      3.60507      8.12982         0.016587      0.001093     -0.024998
      5.02463      2.88643      4.11822         0.055084      0.130675     -0.390917
      7.52997      2.83909      4.10996        -0.014677     -0.038956     -0.315395
     -1.25360      5.10876      4.01488         0.053490     -0.011016     -0.343705
      3.75975      5.11705      4.02298        -0.003778      0.071155     -0.220028
      1.25181      7.95850      2.03067        -0.028790      0.071885      0.350337
      1.21452      7.96941      8.10289        -0.011945      0.012142     -0.026027
      5.05136      2.85137      9.22881        -0.015710     -0.015693      0.007142
     -2.52308      7.22674      9.22393        -0.001271      0.006090     -0.014199
     -0.02332      2.87937      9.26563        -0.009482     -0.000657      0.017464
      2.47183      7.28659      9.22485         0.009070     -0.015863     -0.000753
      4.96141      5.69389     10.08452        -0.013688     -0.010125     -0.023192
      5.79517      6.33223     10.99288         0.039162      0.020946     -0.004887
     -3.49738      6.74889     10.42147        -0.015139     -0.008959      0.011077
    total drift:                                0.005066      0.001315      0.007330

  FREE ENERGIE OF THE ION-ELECTRON SYSTEM (eV)
  free  energy   TOTEN  =      -434.19712811 eV

  energy  without entropy=     -434.24680747  energy(sigma->0) =     -434.21368790

 stress matrix after NEB project (eV)
    -30.61780      0.50278      0.04754
      0.50278    -29.61837     -0.48381
      0.04754     -0.48381     -9.41566
  FORCES: max atom, RMS     0.046202    0.019060
  FORCE total and by dimension    0.160605    0.039162
  Stress total and by dimension   43.638638   30.617802

 reached required accuracy - stopping structural energy minimisation
 writing wavefunctions

 total charge

[...]

 magnetization (x)

# of ion       s       p       d       tot
    1       -0.008  -0.025   0.600   0.567
    2       -0.012  -0.030   0.698   0.657
    3       -0.009  -0.027   0.619   0.583
    4       -0.011  -0.031   0.729   0.688
    5       -0.011  -0.030   0.724   0.683
    6       -0.021  -0.043   0.768   0.704
    7       -0.015  -0.031   0.681   0.635
    8       -0.004  -0.015   0.508   0.489
    9       -0.016  -0.035   0.733   0.683
   10       -0.015  -0.036   0.772   0.722
   11       -0.015  -0.020   0.783   0.748
   12       -0.016  -0.037   0.720   0.667
   13       -0.019  -0.038   0.726   0.669
   14       -0.008  -0.020   0.467   0.438
   15       -0.011  -0.036   0.732   0.685
   16       -0.017  -0.021   0.766   0.728
   17       -0.017  -0.035   0.689   0.637
   18       -0.012  -0.029   0.681   0.641
   19       -0.014  -0.033   0.658   0.610
   20       -0.021  -0.034   0.740   0.686
   21       -0.011  -0.021   0.575   0.543
   22       -0.020  -0.048   0.777   0.708
   23       -0.017  -0.036   0.742   0.689
   24       -0.023  -0.034   0.752   0.694
   25       -0.013  -0.025   0.551   0.513
   26       -0.005  -0.025   0.729   0.699
   27       -0.011  -0.030   0.711   0.669
   28       -0.012  -0.030   0.709   0.667
   29       -0.008  -0.019   0.608   0.581
   30       -0.015  -0.037   0.742   0.691
   31       -0.012  -0.035   0.725   0.678
   32       -0.019  -0.026   0.792   0.746
   33       -0.013  -0.030   0.726   0.682
   34       -0.018  -0.035   0.696   0.643
   35       -0.011  -0.023   0.602   0.568
   36       -0.022  -0.045   0.734   0.667
   37       -0.009  -0.031   0.728   0.689
   38       -0.014  -0.015   0.877   0.848
   39       -0.019  -0.042   0.756   0.695
   40       -0.011  -0.025   0.699   0.664
   41       -0.005  -0.013   0.575   0.556
   42       -0.015  -0.028   0.700   0.657
   43       -0.012  -0.017   0.547   0.517
   44       -0.014  -0.033   0.751   0.705
   45       -0.013  -0.037   0.707   0.658
   46       -0.011  -0.026   0.708   0.670
   47       -0.004  -0.011   0.500   0.485
   48       -0.011  -0.034   0.753   0.707
   49       -0.011  -0.028   0.713   0.674
   50        0.006  -0.008   2.796   2.793
   51        0.004  -0.014   2.733   2.724
   52        0.003  -0.018   2.783   2.767
   53        0.004  -0.018   2.683   2.670
   54        0.015  -0.007   2.905   2.913
   55        0.014  -0.001   2.700   2.713
   56       -0.004  -0.029   2.654   2.622
   57        0.012  -0.009   2.915   2.918
   58        0.020   0.007   2.775   2.802
   59       -0.001  -0.024   2.711   2.686
   60        0.004  -0.018   2.754   2.740
   61        0.006  -0.007   2.819   2.818
   62        0.004  -0.012   2.790   2.782
   63        0.019  -0.007   2.947   2.959
   64        0.021   0.007   2.708   2.736
   65        0.002   0.077   0.000   0.079
   66        0.002   0.100   0.000   0.102
   67        0.002   0.082   0.000   0.084
   68        0.002   0.101   0.000   0.103
   69        0.007   0.393   0.000   0.401
   70        0.003   0.183   0.000   0.186
   71       -0.000   0.002   0.000   0.002
tot         -0.505  -0.664  75.652  74.483