 vasp.5.4.4.18Apr17-6-g9f103f2a35 (build Sep 06 2021 19:49:22) complex

 executed on             LinuxIFC date 2022.01.03  14:36:28

 INCAR:
 POTCAR:    PAW_PBE Ni 02Aug2007
 POTCAR:    PAW_PBE Fe 06Sep2000

 POTCAR:    PAW_PBE Ni 02Aug2007
   VRHFIN =Ni:

   TITEL  = PAW_PBE Ni 02Aug2007
   POMASS =   58.690; ZVAL   =   10.000    mass and valenz
   ENMAX  =  269.532; ENMIN  =  202.149 eV

 POTCAR:    PAW_PBE Fe 06Sep2000
   VRHFIN =Fe:  d7 s1

   TITEL  = PAW_PBE Fe 06Sep2000
   POMASS =   55.847; ZVAL   =    8.000    mass and valenz
   ENMAX  =  267.882; ENMIN  =  200.911 eV

 Optimization of the real space projectors (new method)

 maximal supplied QI-value         = 16.25
 optimisation between [QCUT,QGAM] = [ 11.54, 23.24] = [ 37.28,151.24] Ry
 Optimized for a Real-space Cutoff    1.45 Angstroem

   l    n(q)    QCUT    max X(q) W(low)/X(q) W(high)/X(q)  e(spline)
   2      9    11.539    60.317    0.19E-03    0.47E-04    0.16E-06
   2      9    11.539    55.921    0.19E-03    0.48E-04    0.16E-06
   0     10    11.539    51.690    0.80E-04    0.50E-04    0.24E-06
   0     10    11.539    30.015    0.73E-04    0.45E-04    0.22E-06
   1     10    11.539    18.849    0.87E-04    0.16E-03    0.71E-07
   1     10    11.539    14.624    0.73E-04    0.13E-03    0.64E-07
 Optimization of the real space projectors (new method)

 maximal supplied QI-value         = 16.25
 optimisation between [QCUT,QGAM] = [ 11.54, 23.24] = [ 37.28,151.24] Ry
 Optimized for a Real-space Cutoff    1.53 Angstroem

   l    n(q)    QCUT    max X(q) W(low)/X(q) W(high)/X(q)  e(spline)
   2     10    11.539    80.901    0.11E-03    0.14E-03    0.21E-06
   2     10    11.539    75.754    0.11E-03    0.14E-03    0.22E-06
   0     11    11.539    58.752    0.52E-04    0.18E-04    0.33E-06
   0     11    11.539    30.679    0.44E-04    0.16E-04    0.30E-06
   1     10    11.539    17.977    0.53E-04    0.29E-04    0.13E-06
   1     10    11.539    13.559    0.44E-04    0.25E-04    0.11E-06
  PAW_PBE Ni 02Aug2007                  :
  PAW_PBE Fe 06Sep2000                  :

 POSCAR: POSCAR
  positions in direct lattice
  velocities in cartesian coordinates
 exchange correlation table for  LEXCH =        8
   RHO(1)=    0.500       N(1)  =     2000
   RHO(2)=  100.500       N(2)  =     4000

 ion  position               nearest neighbor table
   1  0.999  0.001  0.094-  28 2.50  37 2.51   9 2.52  60 2.53   3 2.53   7 2.53  25 2.54  63 2.54
                            35 2.54
   2  0.998  0.001  0.376-  42 2.40  40 2.47  34 2.48   8 2.49  36 2.51  10 2.53   4 2.54  26 2.56
                            29 2.56
   3  0.248  0.999  0.096-  51 2.47  38 2.48  60 2.49   5 2.51  11 2.52   9 2.52  25 2.53   1 2.53
                            61 2.56
   4  0.252  0.005  0.376-  14 2.44  32 2.45  10 2.50  26 2.52  40 2.53   6 2.54   2 2.54  39 2.58
                            52 2.70
   5  0.499  0.002  0.095-  38 2.49  35 2.51   3 2.51  41 2.52  12 2.53  51 2.54  53 2.54  61 2.55
                            62 2.57
   6  0.499  0.997  0.379-  33 2.45  16 2.47  14 2.49  54 2.52  13 2.52  36 2.52   4 2.54  52 2.55
                            39 2.63
   7  0.998  0.251  0.096-  37 2.48  43 2.49  35 2.50  17 2.50  12 2.53  45 2.53   1 2.53   9 2.55
                            15 2.55
   8  0.003  0.249  0.377-  24 2.43  49 2.48  42 2.49   2 2.49  10 2.49  18 2.54  13 2.59  44 2.59
                            36 2.59
   9  0.249  0.249  0.095-  37 2.48  38 2.48   1 2.52  43 2.52   3 2.52  48 2.54  11 2.54   7 2.55
                            46 2.55
  10  0.250  0.251  0.376-  22 2.40   8 2.49   4 2.50  49 2.53  40 2.53   2 2.53  47 2.54  44 2.54
                            39 2.54
  11  0.334  0.165  0.192-  14 2.43  40 2.43  22 2.44  38 2.48  48 2.50  21 2.51  61 2.52   3 2.52
                            41 2.54  60 2.54  37 2.54   9 2.54
  12  0.749  0.253  0.097-  41 2.47  19 2.49  17 2.51  35 2.51  23 2.51   7 2.53   5 2.53  38 2.55
                            15 2.55
  13  0.746  0.248  0.379-  16 2.45  50 2.46  24 2.47  39 2.49   6 2.52  20 2.53   8 2.59  36 2.59
                            18 2.60
  14  0.419  0.087  0.284-  11 2.43  61 2.43   4 2.44  39 2.45  50 2.45  41 2.46   6 2.49  22 2.49
                            16 2.52  32 2.54  33 2.55  40 2.63
  15  0.832  0.166  0.194-  16 2.42  42 2.45  24 2.45  45 2.48  41 2.49  35 2.51  62 2.51  23 2.52
                            37 2.54  12 2.55   7 2.55  63 2.55
  16  0.668  0.085  0.286-  36 2.38  15 2.42  62 2.42  13 2.45  41 2.46   6 2.47  64 2.47  24 2.50
                            14 2.52  50 2.54  33 2.55  42 2.59
  17  0.999  0.499  0.097-  45 2.48   7 2.50  43 2.51  12 2.51  27 2.52  51 2.52  25 2.53  19 2.53
                            23 2.54
  18  0.007  0.503  0.380-  52 2.44  24 2.47  56 2.47  31 2.48  26 2.52  44 2.52   8 2.54  20 2.59
                            13 2.60
  19  0.748  0.499  0.096-  46 2.48  12 2.49  58 2.49  21 2.52  25 2.52  28 2.53  17 2.53  23 2.56
                            38 2.57
  20  0.749  0.500  0.380-  39 2.43  50 2.44  31 2.46  59 2.48  47 2.50  29 2.53  13 2.53  26 2.58
                            18 2.59
  21  0.583  0.413  0.193-  59 2.44  50 2.44  48 2.47  22 2.48  41 2.49  58 2.49  23 2.50  11 2.51
                            19 2.52  38 2.54  46 2.54  57 2.56
  22  0.411  0.329  0.285-  39 2.39  48 2.40  10 2.40  47 2.41  11 2.44  21 2.48  50 2.49  14 2.49
                            30 2.50  40 2.54  49 2.54  59 2.56
  23  0.831  0.415  0.194-  31 2.44  24 2.45  45 2.45  58 2.47  41 2.47  50 2.49  21 2.50  12 2.51
                            15 2.52  27 2.53  17 2.54  19 2.56
  24  0.916  0.333  0.287-  45 2.42   8 2.43  23 2.45  15 2.45  13 2.47  18 2.47  49 2.48  16 2.50
                            31 2.50  56 2.52  42 2.59  50 2.60
  25  0.998  0.749  0.096-  60 2.47  51 2.48  28 2.48  58 2.51  19 2.52   3 2.53  17 2.53  27 2.53
                             1 2.54
  26  0.007  0.752  0.378-  32 2.44  31 2.47  34 2.52  18 2.52   4 2.52   2 2.56  52 2.56  20 2.58
                            29 2.63
  27  0.082  0.666  0.193-  32 2.44  31 2.46  45 2.49  51 2.50  58 2.50  56 2.51  60 2.51  17 2.52
                            25 2.53  23 2.53  61 2.54  55 2.54
  28  0.753  0.752  0.095-  25 2.48   1 2.50  63 2.51  19 2.53  46 2.54  57 2.54  58 2.55  53 2.57
                            35 2.58
  29  0.744  0.748  0.377-  59 2.46  36 2.46  54 2.47  47 2.47  64 2.48  34 2.49  20 2.53   2 2.56
                            26 2.63
  30  0.421  0.582  0.283-  44 2.37  47 2.38  55 2.39  57 2.40  48 2.41  54 2.42  59 2.47  56 2.50
                            22 2.50  64 2.56  33 2.56  49 2.58
  31  0.915  0.580  0.286-  23 2.44  58 2.45  27 2.46  20 2.46  26 2.47  18 2.48  24 2.50  59 2.53
                            34 2.53  50 2.55  32 2.56  56 2.61
  32  0.169  0.834  0.285-  61 2.42  26 2.44  27 2.44   4 2.45  52 2.47  60 2.48  33 2.51  14 2.54
                            34 2.55  40 2.56  31 2.56  56 2.62
  33  0.416  0.832  0.285-  52 2.38  54 2.40  62 2.41  61 2.42  55 2.42   6 2.45  32 2.51  64 2.51
                            56 2.53  14 2.55  16 2.55  30 2.56
  34  0.914  0.830  0.283-  63 2.41  58 2.44  60 2.46  42 2.48   2 2.48  29 2.49  40 2.49  26 2.52
                            59 2.52  31 2.53  64 2.54  32 2.55
  35  0.749  0.005  0.097-   7 2.50  15 2.51  12 2.51   5 2.51   1 2.54  63 2.55  62 2.55  53 2.55
                            28 2.58
  36  0.746  0.993  0.373-  64 2.32  16 2.38  42 2.44  29 2.46  54 2.48   2 2.51   6 2.52  13 2.59
                             8 2.59
  37  0.085  0.169  0.190-  40 2.38  49 2.39  42 2.45   9 2.48   7 2.48   1 2.51  48 2.53  15 2.54
                            45 2.54  11 2.54  63 2.55  60 2.56
  38  0.493  0.245  0.095-   9 2.48   3 2.48  11 2.48   5 2.49  46 2.52  21 2.54  41 2.54  12 2.55
                            19 2.57
  39  0.507  0.261  0.375-  50 2.28  22 2.39  20 2.43  47 2.45  14 2.45  13 2.49  10 2.54   4 2.58
                             6 2.63
  40  0.156  0.080  0.280-  42 2.37  37 2.38  60 2.40  11 2.43   2 2.47  34 2.49  49 2.52  10 2.53
                             4 2.53  22 2.54  32 2.56  14 2.63
  41  0.588  0.169  0.192-  16 2.46  14 2.46  12 2.47  23 2.47  15 2.49  50 2.49  21 2.49  62 2.51
                             5 2.52  11 2.54  38 2.54  61 2.56
  42  0.921  0.079  0.283-  40 2.37   2 2.40  63 2.41  36 2.44  15 2.45  37 2.45  34 2.48  64 2.48
                             8 2.49  49 2.49  16 2.59  24 2.59
  43  0.246  0.497  0.097-   7 2.49  17 2.51   9 2.52  45 2.53  55 2.54  48 2.54  53 2.55  46 2.58
                            51 2.59
  44  0.257  0.506  0.372-  56 2.29  52 2.37  30 2.37  54 2.45  49 2.48  47 2.50  18 2.52  10 2.54
                             8 2.59
  45  0.074  0.415  0.193-  49 2.37  56 2.42  24 2.42  23 2.45  17 2.48  15 2.48  27 2.49   7 2.53
                            43 2.53  37 2.54  55 2.55  48 2.67
  46  0.503  0.500  0.095-  19 2.48  38 2.52  48 2.53  28 2.54  21 2.54   9 2.55  53 2.55  57 2.55
                            43 2.58
  47  0.502  0.501  0.373-  59 2.37  30 2.38  22 2.41  39 2.45  29 2.47  20 2.50  44 2.50  54 2.51
                            10 2.54
  48  0.339  0.415  0.193-  22 2.40  30 2.41  49 2.43  21 2.47  11 2.50  57 2.52  37 2.53  46 2.53
                            55 2.54  43 2.54   9 2.54  45 2.67
  49  0.160  0.332  0.280-  45 2.37  37 2.39  56 2.42  48 2.43  24 2.48  44 2.48   8 2.48  42 2.49
                            40 2.52  10 2.53  22 2.54  30 2.58
  50  0.659  0.333  0.288-  39 2.28  21 2.44  20 2.44  14 2.45  13 2.46  59 2.47  41 2.49  22 2.49
                            23 2.49  16 2.54  31 2.55  24 2.60
  51  0.245  0.753  0.097-   3 2.47  25 2.48  27 2.50  61 2.51  17 2.52   5 2.54  53 2.57  43 2.59
                            55 2.60
  52  0.253  0.738  0.375-  44 2.37  56 2.37  33 2.38  18 2.44  54 2.44  32 2.47   6 2.55  26 2.56
                             4 2.70
  53  0.498  0.750  0.096-  57 2.53   5 2.54  46 2.55  35 2.55  43 2.55  55 2.56  62 2.57  28 2.57
                            51 2.57
  54  0.500  0.748  0.374-  33 2.40  30 2.42  64 2.44  52 2.44  44 2.45  29 2.47  36 2.48  47 2.51
                             6 2.52
  55  0.332  0.663  0.195-  56 2.38  30 2.39  33 2.42  57 2.54  48 2.54  43 2.54  27 2.54  61 2.55
                            45 2.55  62 2.56  53 2.56  51 2.60
  56  0.172  0.576  0.285-  44 2.29  52 2.37  55 2.38  49 2.42  45 2.42  18 2.47  30 2.50  27 2.51
                            24 2.52  33 2.53  31 2.61  32 2.62
  57  0.586  0.668  0.193-  30 2.40  59 2.44  64 2.44  63 2.50  48 2.52  58 2.52  53 2.53  55 2.54
                            28 2.54  62 2.55  46 2.55  21 2.56
  58  0.831  0.659  0.192-  59 2.43  34 2.44  31 2.45  23 2.47  19 2.49  21 2.49  27 2.50  25 2.51
                            57 2.52  28 2.55  60 2.56  63 2.57
  59  0.665  0.580  0.284-  47 2.37  58 2.43  21 2.44  57 2.44  29 2.46  50 2.47  30 2.47  20 2.48
                            34 2.52  31 2.53  22 2.56  64 2.62
  60  0.082  0.914  0.191-  40 2.40  34 2.46  25 2.47  32 2.48   3 2.49  63 2.51  27 2.51   1 2.53
[...]
   -.421E+02 0.145E+02 -.266E+04   0.424E+02 -.146E+02 0.266E+04   -.159E+00 0.602E-01 0.124E+01   -.106E+00 0.388E-01 -.109E+00
   0.520E+01 -.999E+02 0.269E+04   -.518E+01 0.100E+03 -.268E+04   -.192E+00 -.386E+00 -.910E+00   -.583E-02 0.615E-01 0.158E-01
   -.925E+01 -.728E+02 -.268E+04   0.940E+01 0.731E+02 0.267E+04   -.148E+00 -.317E+00 0.101E+01   -.824E-02 -.302E-02 -.849E-01
   0.536E+02 -.187E+01 0.924E+03   -.537E+02 0.166E+01 -.923E+03   0.166E+00 0.252E+00 -.315E+00   -.283E-01 0.134E-01 -.534E-01
   0.151E+02 0.688E+02 0.272E+04   -.154E+02 -.689E+02 -.272E+04   0.250E+00 0.120E+00 -.105E+01   0.107E-01 0.971E-02 0.478E-02
   0.160E+02 0.400E+02 -.273E+04   -.163E+02 -.402E+02 0.273E+04   0.254E+00 0.145E+00 0.116E+01   0.361E-01 0.269E-01 -.778E-01
   -.655E+01 -.186E+02 -.823E+03   0.670E+01 0.188E+02 0.822E+03   -.200E+00 -.160E+00 0.333E+00   0.366E-01 -.239E-01 -.808E-01
   -.737E+02 0.101E+03 0.899E+03   0.738E+02 -.102E+03 -.898E+03   -.154E+00 0.367E+00 -.400E+00   0.115E-01 0.353E-01 0.148E-02
   -.446E+02 0.770E+02 -.841E+03   0.447E+02 -.773E+02 0.841E+03   -.200E+00 0.246E+00 0.225E+00   0.395E-01 0.150E-01 -.553E-01
   -.104E+03 -.382E+02 0.272E+04   0.104E+03 0.382E+02 -.271E+04   -.219E+00 0.591E-01 -.114E+01   0.388E-01 -.179E-01 0.335E-01
   -.820E+02 -.232E+02 -.272E+04   0.823E+02 0.235E+02 0.271E+04   -.279E+00 -.256E+00 0.838E+00   -.486E-01 -.975E-02 -.103E+00
   0.813E+02 -.302E+01 0.273E+04   -.815E+02 0.297E+01 -.273E+04   0.203E+00 0.955E-01 -.118E+01   0.215E-02 -.373E-01 0.122E-01
   0.933E+02 0.310E+02 -.272E+04   -.939E+02 -.312E+02 0.272E+04   0.483E+00 0.255E+00 0.150E+01   0.124E+00 -.264E-01 -.669E-01
   0.871E+02 -.566E+02 0.924E+03   -.872E+02 0.569E+02 -.924E+03   0.143E+00 -.293E+00 -.419E+00   -.351E-02 0.130E-01 -.554E-01
   0.525E+02 -.566E+02 -.882E+03   -.524E+02 0.568E+02 0.882E+03   -.540E-01 -.167E+00 0.156E+00   -.123E-01 -.102E-02 -.123E+00
   0.578E+01 0.464E+01 0.883E+03   -.578E+01 -.470E+01 -.883E+03   -.549E-01 0.239E-01 -.283E+00   0.522E-01 0.173E-01 0.267E-02
   -.990E+02 0.158E+02 -.849E+03   0.992E+02 -.157E+02 0.849E+03   -.189E+00 -.704E-01 0.238E+00   -.592E-02 0.321E-01 -.668E-01
   -.155E+02 -.181E+02 0.269E+04   0.153E+02 0.183E+02 -.269E+04   0.234E-01 -.262E-01 -.151E+01   0.482E-01 -.333E-01 0.305E-01
   -.109E+02 -.151E+02 -.272E+04   0.108E+02 0.153E+02 0.272E+04   0.386E-01 -.632E-01 0.128E+01   0.692E-01 -.990E-01 -.737E-01
   -.109E+03 -.324E+02 0.925E+03   0.109E+03 0.326E+02 -.925E+03   -.238E+00 -.113E+00 -.443E+00   0.246E-01 -.392E-01 0.124E-03
   0.135E+03 -.710E+01 0.266E+04   -.136E+03 0.701E+01 -.265E+04   0.605E+00 0.160E-01 -.154E+01   -.467E-01 -.376E-01 0.149E-01
   0.116E+03 -.516E+01 -.268E+04   -.116E+03 0.506E+01 0.267E+04   0.694E+00 0.102E+00 0.111E+01   0.283E-01 0.386E-02 -.531E-01
   0.125E+02 -.957E+01 -.881E+03   -.124E+02 0.963E+01 0.881E+03   -.116E+00 -.200E-01 0.497E+00   -.591E-01 -.119E-01 -.162E+00
   0.220E+02 -.748E+00 -.838E+03   -.222E+02 0.825E+00 0.837E+03   0.130E+00 -.330E-01 0.341E+00   0.636E-01 -.413E-01 -.655E-01
   -.390E+02 -.803E+01 -.808E+03   0.390E+02 0.810E+01 0.807E+03   -.867E-03 -.440E-02 0.303E+00   0.122E-01 -.628E-01 -.897E-01
   -.666E+02 0.828E+02 -.857E+03   0.666E+02 -.830E+02 0.857E+03   0.137E-02 0.249E+00 0.462E+00   -.120E-01 0.307E-02 -.111E+00
   0.107E+03 -.559E+02 -.749E+03   -.107E+03 0.560E+02 0.749E+03   0.199E+00 -.231E-01 0.496E+00   0.327E-01 -.269E-01 -.130E+00
   0.208E+02 0.835E+02 0.213E+04   -.210E+02 -.837E+02 -.212E+04   0.259E+00 0.316E+00 -.285E+01   -.375E-01 0.137E-01 0.121E-01
   -.544E+01 0.540E+02 -.218E+04   0.529E+01 -.544E+02 0.217E+04   0.223E+00 0.312E+00 0.339E+01   -.547E-01 0.605E-01 -.538E-01
   -.116E+00 -.147E+02 0.702E+03   0.205E+00 0.146E+02 -.701E+03   -.137E+00 -.782E-03 -.103E+01   -.147E-01 0.439E-01 -.787E-02
   0.113E+02 -.231E+02 0.218E+04   -.112E+02 0.230E+02 -.218E+04   0.915E-01 0.928E-01 -.270E+01   -.282E-02 0.121E-01 -.962E-02
   0.232E+02 -.497E+02 -.220E+04   -.231E+02 0.498E+02 0.220E+04   -.117E+00 -.515E-02 0.288E+01   0.608E-01 -.192E-01 -.289E-01
   0.784E+02 -.457E+02 -.636E+03   -.788E+02 0.458E+02 0.636E+03   0.389E+00 -.107E+00 0.503E+00   -.127E-01 0.945E-02 -.117E+00
   0.204E+02 0.613E+02 0.752E+03   -.206E+02 -.615E+02 -.752E+03   0.192E+00 0.224E+00 -.292E+00   0.293E-01 -.365E-02 -.312E-01
   -.401E+02 0.292E+02 -.643E+03   0.402E+02 -.295E+02 0.642E+03   -.123E+00 0.312E+00 0.375E+00   -.438E-01 0.451E-01 -.907E-01
   -.636E+02 -.762E+02 0.210E+04   0.639E+02 0.770E+02 -.210E+04   -.304E+00 -.632E+00 -.259E+01   0.301E-02 0.315E-02 0.241E-01
   -.491E+02 -.397E+02 -.220E+04   0.496E+02 0.405E+02 0.220E+04   -.396E+00 -.870E+00 0.322E+01   -.872E-01 0.477E-03 -.551E-01
   -.153E+03 -.246E+02 0.709E+03   0.153E+03 0.248E+02 -.708E+03   -.668E+00 -.223E+00 -.510E+00   0.199E-02 0.946E-02 -.120E-01
   0.850E+02 -.456E+02 0.215E+04   -.852E+02 0.458E+02 -.215E+04   0.386E+00 -.122E+00 -.290E+01   -.363E-01 -.122E-01 0.598E-02
   0.398E+02 -.118E+02 -.216E+04   -.402E+02 0.121E+02 0.216E+04   0.294E+00 -.359E+00 0.235E+01   0.353E-01 -.157E-01 -.353E-01
   0.726E+02 -.667E+02 0.749E+03   -.730E+02 0.671E+02 -.749E+03   0.545E+00 -.433E+00 0.511E-01   -.396E-01 0.852E-02 -.547E-01
   -.138E+02 -.128E+02 -.655E+03   0.138E+02 0.127E+02 0.654E+03   0.108E+00 0.812E-01 0.717E+00   -.586E-01 -.119E-02 -.121E+00
   0.631E+02 0.628E+01 -.727E+03   -.634E+02 -.619E+01 0.727E+03   0.205E+00 -.802E-01 0.881E-01   0.800E-01 0.116E-01 -.467E-01
   -.118E+03 0.297E+02 0.213E+04   0.118E+03 -.299E+02 -.213E+04   -.485E+00 -.425E-03 -.244E+01   0.315E-01 -.242E-01 0.210E-01
   -.779E+02 0.399E+02 -.221E+04   0.785E+02 -.402E+02 0.220E+04   -.507E+00 0.347E+00 0.278E+01   -.385E-01 -.166E-01 -.533E-01
   0.160E+02 0.343E+02 0.210E+04   -.164E+02 -.347E+02 -.210E+04   0.378E+00 0.347E+00 -.285E+01   -.305E-01 -.229E-01 0.165E-01
   -.780E+01 0.188E+02 -.218E+04   0.763E+01 -.193E+02 0.218E+04   0.195E+00 0.458E+00 0.247E+01   -.307E-01 0.589E-01 -.433E-01
   -.600E+02 0.179E+02 0.755E+03   0.600E+02 -.178E+02 -.756E+03   -.107E+00 -.679E-01 0.359E+00   -.160E-01 -.146E-01 -.455E-01
   -.111E+03 0.176E+02 -.720E+03   0.112E+03 -.177E+02 0.720E+03   -.534E+00 0.126E+00 0.169E+00   -.579E-01 -.317E-01 -.799E-01
   0.614E+02 -.311E+02 0.747E+03   -.615E+02 0.313E+02 -.747E+03   0.147E+00 -.168E+00 -.601E+00   -.347E-01 -.695E-02 -.471E-01
   0.926E+02 -.650E+02 0.725E+03   -.930E+02 0.652E+02 -.725E+03   0.228E+00 -.238E+00 -.676E+00   0.309E-01 -.219E-01 -.856E-03
   0.784E+02 -.247E+02 -.669E+03   -.787E+02 0.248E+02 0.668E+03   0.250E+00 -.785E-01 0.445E+00   0.446E-01 -.165E-01 -.987E-01
   0.430E+02 -.395E+02 0.740E+03   -.434E+02 0.397E+02 -.740E+03   0.360E+00 -.149E+00 -.485E+00   0.151E-01 -.943E-02 -.590E-02
   -.597E+02 0.381E+02 0.757E+03   0.600E+02 -.384E+02 -.757E+03   -.388E+00 0.347E+00 -.186E+00   0.163E-01 -.389E-01 -.344E-01
   -.302E+02 0.939E+02 0.747E+03   0.306E+02 -.944E+02 -.747E+03   -.301E+00 0.495E+00 -.157E+00   -.127E-01 -.111E-01 -.263E-01
   0.462E+02 0.139E+02 0.716E+03   -.465E+02 -.140E+02 -.715E+03   0.268E+00 0.619E-01 -.652E+00   -.164E-01 0.171E-01 -.164E-02
   0.274E+01 0.186E+02 -.695E+03   -.261E+01 -.184E+02 0.694E+03   -.807E-01 -.267E+00 0.470E+00   -.287E-01 0.508E-01 -.914E-01
   -.104E+01 -.132E+00 0.387E+01   -.178E-12 0.163E-12 0.227E-12   0.940E+00 0.188E+00 -.119E+01   0.990E-01 -.554E-01 -.267E+01

 POSITION                                       TOTAL-FORCE (eV/Angst)
     10.08740      0.00562      2.00000         0.017693      0.012104      0.252137
      0.01723      0.00434      8.13200         0.002832      0.009087      0.025751
     -2.53339      8.73512      2.03255        -0.088015     -0.080514      0.263892
      2.51863     -0.00944      8.15335         0.021922      0.012505      0.001090
      5.03058      0.01686      2.02726         0.035272     -0.063545      0.374209
      5.08390     -0.01538      8.13039        -0.004240     -0.005473      0.012135
      8.81557      2.19268      2.03016         0.100896     -0.084392      0.306154
     -1.26052      2.18519      8.15024        -0.006345     -0.000150      0.015899
      1.26036      2.17683      2.01409        -0.169607      0.096249      0.284357
      1.24957      2.19248      8.17598         0.000186      0.018637      0.008676
      2.54422      1.44455      4.08529         0.039694      0.054495     -0.085459
      6.28789      2.21111      2.05636        -0.018201      0.048646      0.276270
      6.30413      2.19748      8.16656        -0.005857     -0.007607      0.013916
      3.80257      0.73488      6.13907        -0.006395      0.010794     -0.007686
      7.56604      1.45101      4.12460        -0.008446     -0.072302     -0.356656
      6.33032      0.73278      6.15439        -0.020229     -0.004159      0.001083
      7.57051      4.36576      2.05350         0.002706      0.058860      0.318282
     -2.52928      4.36330      8.15802         0.016049     -0.001008      0.018717
      5.03817      4.36229      2.03237        -0.061893      0.006507      0.281782
      5.04447      4.37529      8.18507        -0.009347     -0.003846      0.003929
      3.80277      3.61435      4.09537        -0.031254      0.008976     -0.081104
      2.56828      2.91275      6.15070        -0.004256      0.007201      0.002069
      6.30075      3.62795      4.12919        -0.007301     -0.016908     -0.161250
      7.59406      2.92229      6.16202         0.003869      0.006592      0.004922
      6.29425      6.55133      2.04330        -0.110747      0.052545      0.182939
     -3.78892      6.53888      8.13384        -0.008761      0.011330      0.029890
     -2.53418      5.82300      4.10902         0.105412      0.023555     -0.094154
      3.81389      6.57546      2.02350         0.015365     -0.107808      0.206794
      3.81099      6.56162      8.16556        -0.007135     -0.000987      0.016941
      1.27603      5.09146      6.19940        -0.006679      0.023139     -0.010615
      6.29949      5.11635      6.15004         0.005033      0.003227      0.003393
     -2.51443      7.29907      6.13661        -0.001289     -0.002217     -0.010257
      0.01390      7.26127      6.18867         0.000878      0.012916      0.002449
      5.07676      7.30313      6.12459         0.006195     -0.000129      0.016371
      7.54405      0.03969      2.05505         0.049278      0.097148      0.147414
      7.57306      0.01705      8.22212         0.016578     -0.014896     -0.005545
      0.00095      1.48112      4.03255        -0.062532     -0.008979     -0.269643
      3.74186      2.14689      2.02455         0.215008      0.015179      0.025871
      3.79505      2.10455      8.21260         0.006316      0.030473     -0.017622
      1.31334      0.74189      6.17401        -0.006597      0.004127      0.005308
      5.08151      1.48100      4.08150        -0.008586      0.050581     -0.317676
      8.83425      0.74662      6.14701        -0.008014      0.020048      0.006156
     -0.02406      4.34464      2.06751        -0.035925      0.140662     -0.190625
     -0.04381      4.36878      8.32196        -0.003777     -0.003760     -0.018653
     -1.34500      3.63090      4.10833         0.059698     -0.017584     -0.209585
      2.55702      4.37025      2.00936         0.097463      0.040175      0.090452
      2.55810      4.35666      8.19222        -0.012602     -0.001377     -0.023409
      1.32920      3.63133      4.09860         0.054158     -0.083739     -0.017237
      0.02934      2.97248      6.18797        -0.001543      0.011946      0.002220
      5.09121      2.94162      6.19874        -0.005151      0.012982     -0.002196
     -1.32764      6.58396      2.06192         0.096646     -0.196789      0.045283
     -1.31016      6.59750      8.23418        -0.024788      0.017044     -0.015212
      1.24700      6.55932      2.04429        -0.073841     -0.125260      0.040191
      1.25574      6.49347      8.24062        -0.005066      0.006911     -0.017113
      0.00782      5.79603      4.14909        -0.053784     -0.037937     -0.013109
     -1.28408      5.12042      6.22078         0.010296      0.012345      0.000341
      2.54188      5.84536      4.09542        -0.017877      0.020021     -0.142405
      5.06524      5.76239      4.09008        -0.146297     -0.081722     -0.311209
      3.78797      5.11856      6.16210        -0.002816     -0.001398     -0.003640
     -3.78540      7.99724      4.04874         0.067219      0.081645     -0.272377
     -1.25221      8.01099      4.12545        -0.058048      0.009923     -0.209049
      1.24224      8.03556      4.14192         0.084534     -0.050328     -0.164119
      3.80728      7.99919      4.08829        -0.043403      0.009558     -0.246392
      2.52325      7.29441      6.22192         0.015444      0.016681     -0.013283
    total drift:                                0.000368      0.001301      0.007143

  FREE ENERGIE OF THE ION-ELECTRON SYSTEM (eV)
  free  energy   TOTEN  =      -412.28363829 eV

  energy  without entropy=     -412.32835740  energy(sigma->0) =     -412.29854466

 d Force = 0.5632178E-02[ 0.195E-02, 0.932E-02]  d Energy = 0.5679567E-02-0.474E-04
 d Force = 0.8915686E+02[ 0.890E+02, 0.893E+02]  d Ewald  = 0.8915691E+02-0.470E-04

 Conjugate gradient step on ions:
 trial-energy change:   -0.005680  1 .order   -0.005632   -0.009319   -0.001946
  (g-gl).g = 0.415E-02      g.g   = 0.455E-02  gl.gl    = 0.325E-01
 g(Force)  = 0.455E-02   g(Stress)= 0.000E+00 ortho     = 0.220E-03
 gamma     =   0.12761
 trial     =   2.03760
 opt step  =   2.55057  (harmonic =   2.57533) maximal distance =0.01127488
 next E    =  -412.283884   (d E  =  -0.00593)

 reached required accuracy - stopping structural energy minimisation

 total charge

[...]

 magnetization (x)

# of ion       s       p       d       tot
    1       -0.022  -0.028   0.731   0.681
    2       -0.017  -0.028   0.725   0.680
    3       -0.021  -0.031   0.689   0.637
    4       -0.017  -0.025   0.662   0.620
    5       -0.029  -0.043   0.732   0.660
    6       -0.021  -0.040   0.716   0.655
    7       -0.021  -0.026   0.706   0.659
    8       -0.019  -0.025   0.722   0.679
    9       -0.025  -0.038   0.716   0.653
   10       -0.023  -0.035   0.740   0.682
   11       -0.023  -0.049   0.750   0.677
   12       -0.019  -0.028   0.666   0.620
   13       -0.019  -0.028   0.698   0.650
   14       -0.019  -0.045   0.763   0.699
   15       -0.024  -0.048   0.730   0.658
   16       -0.021  -0.044   0.740   0.675
   17       -0.018  -0.027   0.662   0.617
   18       -0.019  -0.030   0.732   0.684
   19       -0.017  -0.026   0.706   0.663
   20       -0.022  -0.028   0.722   0.672
   21       -0.028  -0.058   0.762   0.676
   22       -0.022  -0.054   0.791   0.715
   23       -0.017  -0.037   0.689   0.636
   24       -0.017  -0.039   0.705   0.648
   25       -0.019  -0.025   0.710   0.667
   26       -0.011  -0.023   0.681   0.647
   27       -0.024  -0.048   0.723   0.651
   28       -0.026  -0.033   0.703   0.645
   29       -0.026  -0.032   0.703   0.645
   30       -0.030  -0.071   0.787   0.686
   31       -0.017  -0.031   0.672   0.623
   32       -0.019  -0.042   0.717   0.657
   33       -0.024  -0.055   0.747   0.668
   34       -0.023  -0.045   0.681   0.613
   35        0.009  -0.008   2.831   2.832
   36        0.008  -0.006   2.857   2.860
   37       -0.007  -0.028   2.683   2.648
   38        0.013  -0.007   2.859   2.864
   39        0.014  -0.009   2.911   2.917
   40        0.003  -0.016   2.791   2.778
   41       -0.002  -0.021   2.707   2.684
   42       -0.003  -0.027   2.697   2.667
   43       -0.003  -0.024   2.796   2.770
   44        0.002  -0.018   2.825   2.809
   45       -0.004  -0.028   2.719   2.687
   46        0.003  -0.014   2.802   2.792
   47        0.007  -0.016   2.799   2.789
   48       -0.006  -0.032   2.663   2.624
   49       -0.006  -0.031   2.693   2.657
   50        0.003  -0.018   2.770   2.755
   51        0.006  -0.018   2.822   2.809
   52        0.008  -0.014   2.857   2.851
   53       -0.003  -0.026   2.783   2.754
   54        0.001  -0.023   2.797   2.775
   55       -0.012  -0.047   2.634   2.574
   56       -0.002  -0.028   2.692   2.662
   57       -0.014  -0.042   2.569   2.513
   58        0.001  -0.019   2.709   2.691
   59       -0.003  -0.020   2.654   2.632
   60       -0.002  -0.019   2.713   2.693
   61       -0.002  -0.022   2.701   2.677
   62       -0.011  -0.040   2.619   2.568
   63       -0.007  -0.036   2.648   2.605
   64       -0.008  -0.037   2.624   2.580
tot         -0.732  -1.958 106.607 103.918