 vasp.5.4.4.18Apr17-6-g9f103f2a35 (build Sep 06 2021 19:49:22) complex

 executed on             LinuxIFC date 2021.12.27  22:43:44

 INCAR:
 POTCAR:    PAW_PBE Ni 02Aug2007
 POTCAR:    PAW_PBE Fe 06Sep2000

 POTCAR:    PAW_PBE Ni 02Aug2007
   VRHFIN =Ni:

   TITEL  = PAW_PBE Ni 02Aug2007
   POMASS =   58.690; ZVAL   =   10.000    mass and valenz
   ENMAX  =  269.532; ENMIN  =  202.149 eV

 POTCAR:    PAW_PBE Fe 06Sep2000
   VRHFIN =Fe:  d7 s1

   TITEL  = PAW_PBE Fe 06Sep2000
   POMASS =   55.847; ZVAL   =    8.000    mass and valenz
   ENMAX  =  267.882; ENMIN  =  200.911 eV

 Optimization of the real space projectors (new method)

 maximal supplied QI-value         = 16.25
 optimisation between [QCUT,QGAM] = [ 11.54, 23.24] = [ 37.28,151.24] Ry
 Optimized for a Real-space Cutoff    1.45 Angstroem

   l    n(q)    QCUT    max X(q) W(low)/X(q) W(high)/X(q)  e(spline)
   2      9    11.539    60.317    0.19E-03    0.47E-04    0.16E-06
   2      9    11.539    55.921    0.19E-03    0.48E-04    0.16E-06
   0     10    11.539    51.690    0.80E-04    0.50E-04    0.24E-06
   0     10    11.539    30.015    0.73E-04    0.45E-04    0.22E-06
   1     10    11.539    18.849    0.87E-04    0.16E-03    0.71E-07
   1     10    11.539    14.624    0.73E-04    0.13E-03    0.64E-07
 Optimization of the real space projectors (new method)

 maximal supplied QI-value         = 16.25
 optimisation between [QCUT,QGAM] = [ 11.54, 23.24] = [ 37.28,151.24] Ry
 Optimized for a Real-space Cutoff    1.53 Angstroem

   l    n(q)    QCUT    max X(q) W(low)/X(q) W(high)/X(q)  e(spline)
   2     10    11.539    80.901    0.11E-03    0.14E-03    0.21E-06
   2     10    11.539    75.754    0.11E-03    0.14E-03    0.22E-06
   0     11    11.539    58.752    0.52E-04    0.18E-04    0.33E-06
   0     11    11.539    30.679    0.44E-04    0.16E-04    0.30E-06
   1     10    11.539    17.977    0.53E-04    0.29E-04    0.13E-06
   1     10    11.539    13.559    0.44E-04    0.25E-04    0.11E-06
  PAW_PBE Ni 02Aug2007                  :
  PAW_PBE Fe 06Sep2000                  :

 POSCAR: POSCAR
  positions in direct lattice
  velocities in cartesian coordinates
 exchange correlation table for  LEXCH =        8
   RHO(1)=    0.500       N(1)  =     2000
   RHO(2)=  100.500       N(2)  =     4000

 ion  position               nearest neighbor table
   1  0.003  0.000  0.502-  25 2.50   7 2.50  14 2.50  10 2.51   5 2.51  12 2.51   2 2.52   3 2.52
                            19 2.53  23 2.53   6 2.54  18 2.57
   2  0.002  0.252  0.753-  26 2.44  25 2.45  11 2.46  28 2.48  27 2.49  10 2.50   4 2.50   7 2.51
                            20 2.52   1 2.52  32 2.54  19 2.55
   3  0.001  0.247  0.246-  26 2.45  11 2.49  32 2.49   6 2.50  18 2.51  13 2.52   1 2.52  19 2.53
                            22 2.53  28 2.54   7 2.55   4 2.55
   4  0.001  0.500  0.502-   2 2.50   5 2.51   7 2.51  14 2.51  13 2.52  19 2.52  23 2.53  20 2.54
                            12 2.55   3 2.55  22 2.55  27 2.57
   5  0.005  0.750  0.753-  21 2.47  25 2.48  14 2.51  11 2.51   1 2.51   4 2.51  26 2.51  24 2.53
                            10 2.53  27 2.54  20 2.56  23 2.57
   6  0.253  0.002  0.247-  15 2.46   8 2.49   3 2.50  21 2.50  29 2.50  26 2.51  28 2.51  12 2.51
                            31 2.53  14 2.53   7 2.53   1 2.54
   7  0.252  0.250  0.503-  16 2.48   8 2.48   9 2.50   1 2.50   2 2.51  25 2.51   4 2.51  27 2.51
                            13 2.53   6 2.53   3 2.55  29 2.59
   8  0.498  0.001  0.498-   7 2.48  14 2.49   6 2.49  19 2.50  18 2.50  23 2.51   9 2.53  17 2.53
                            10 2.55  31 2.56  25 2.58  29 2.59
   9  0.500  0.249  0.754-  28 2.43  27 2.45  15 2.48  20 2.49  32 2.49   7 2.50  25 2.50  30 2.50
                            10 2.51   8 2.53  19 2.53  16 2.54
  10  0.753  0.002  0.753-  26 2.48  32 2.50   2 2.50  24 2.50   1 2.51   9 2.51  15 2.52  19 2.52
                             5 2.53  23 2.54   8 2.55  17 2.56
  11  0.001  0.496  0.999-   2 2.46  27 2.48   3 2.49  13 2.50   5 2.51  20 2.51  28 2.51  22 2.51
                            32 2.52  21 2.53  12 2.54  24 2.54
  12  0.000  0.754  0.248-  24 2.50  21 2.50   1 2.51   6 2.51  18 2.51  23 2.52  14 2.53  26 2.54
                            11 2.54  13 2.54   4 2.55  22 2.55
  13  0.251  0.499  0.248-  30 2.44  31 2.47  29 2.47  16 2.48  11 2.50  21 2.51   3 2.52   4 2.52
                            14 2.52  28 2.53   7 2.53  12 2.54
  14  0.252  0.750  0.500-  17 2.48   8 2.49  16 2.49   1 2.50   5 2.51   4 2.51  31 2.52  13 2.52
                             6 2.53  12 2.53  25 2.58  27 2.58
  15  0.499  0.000  0.000-  29 2.45   6 2.46  28 2.47  18 2.48   9 2.48  25 2.48  32 2.49  21 2.49
                            17 2.51  24 2.51  10 2.52  31 2.52
  16  0.498  0.499  0.498-   7 2.48  13 2.48  14 2.49  31 2.49  19 2.50  22 2.51  23 2.51  27 2.53
                            17 2.53  20 2.53   9 2.54  29 2.55
  17  0.495  0.750  0.751-  21 2.47  14 2.48  27 2.48  15 2.51  20 2.52  24 2.52   8 2.53  16 2.53
                            23 2.53  25 2.54  30 2.55  10 2.56
  18  0.746  0.001  0.247-  32 2.45  15 2.48  24 2.49   8 2.50  29 2.51  19 2.51   3 2.51  12 2.51
                            23 2.52  31 2.53  26 2.55   1 2.57
  19  0.748  0.250  0.498-   8 2.50  16 2.50  18 2.51  22 2.51  10 2.52   4 2.52   1 2.53  20 2.53
                             3 2.53   9 2.53   2 2.55  29 2.57
  20  0.746  0.498  0.754-   9 2.49  24 2.50  11 2.51  32 2.51   2 2.52  17 2.52  30 2.52  19 2.53
                            16 2.53   4 2.54  23 2.55   5 2.56
  21  0.251  0.750  0.999-   5 2.47  17 2.47  31 2.48  27 2.48  25 2.49  30 2.49  15 2.49   6 2.50
                            12 2.50  13 2.51  11 2.53  26 2.53
  22  0.747  0.499  0.247-  31 2.47  32 2.47  29 2.47  30 2.48  24 2.50  19 2.51  16 2.51  11 2.51
                            23 2.52   3 2.53  12 2.55   4 2.55
  23  0.747  0.750  0.498-   8 2.51  31 2.51  16 2.51  18 2.52  22 2.52  12 2.52   4 2.53   1 2.53
                            17 2.53  10 2.54  20 2.55   5 2.57
  24  0.749  0.750  0.001-  31 2.48  18 2.49  22 2.50  12 2.50  20 2.50  10 2.50  15 2.51  17 2.52
                             5 2.53  11 2.54  30 2.55  26 2.57
  25  0.245  0.006  0.759-  26 2.39  28 2.40   2 2.45   5 2.48  15 2.48  21 2.49   1 2.50   9 2.50
                             7 2.51  17 2.54  14 2.58   8 2.58
  26  0.004  0.008  0.996-  25 2.39   2 2.44   3 2.45  28 2.46  10 2.48  32 2.50   6 2.51   5 2.51
                            21 2.53  12 2.54  18 2.55  24 2.57
  27  0.256  0.495  0.760-  28 2.41  30 2.43   9 2.45  17 2.48  11 2.48  21 2.48   2 2.49   7 2.51
                            16 2.53   5 2.54   4 2.57  14 2.58
  28  0.255  0.249  0.994-  25 2.40  27 2.41   9 2.43  29 2.43  30 2.44  26 2.46  15 2.47   2 2.48
                             6 2.51  11 2.51  13 2.53   3 2.54
  29  0.500  0.254  0.235-  30 2.37  32 2.39  28 2.43  15 2.45  22 2.47  13 2.47   6 2.50  18 2.51
                            16 2.55  19 2.57   8 2.59   7 2.59
  30  0.495  0.496  0.006-  29 2.37  27 2.43  13 2.44  31 2.44  28 2.44  22 2.48  21 2.49   9 2.50
                            32 2.51  20 2.52  17 2.55  24 2.55
  31  0.500  0.743  0.245-  30 2.44  22 2.47  13 2.47  24 2.48  21 2.48  16 2.49  23 2.51  14 2.52
                            15 2.52  18 2.53   6 2.53   8 2.56
  32  0.746  0.248  0.005-  29 2.39  18 2.45  22 2.47  15 2.49   3 2.49   9 2.49  26 2.50  10 2.50
                            30 2.51  20 2.51  11 2.52   2 2.54

IMPORTANT INFORMATION: All symmetrisations will be switched off!
NOSYMM: (Re-)initialisation of all symmetry stuff for point group C_1.

Automatic generation of k-mesh.
 generate k-points for:    3    3    3
Space group operators:
 irot       det(A)        alpha          n_x          n_y          n_z        tau_x        tau_y        tau_z
    1     1.000000     0.000001     1.000000     0.000000     0.000000     0.000000     0.000000     0.000000

 Subroutine IBZKPT returns following result:

 Found     14 irreducible k-points:

 Following reciprocal coordinates:
            Coordinates               Weight
  0.000000  0.000000  0.000000      1.000000
  0.333333  0.000000  0.000000      2.000000
  0.000000  0.333333  0.000000      2.000000
  0.333333  0.333333  0.000000      2.000000
 -0.333333  0.333333  0.000000      2.000000
  0.000000  0.000000  0.333333      2.000000
  0.333333  0.000000  0.333333      2.000000
 -0.333333  0.000000  0.333333      2.000000
  0.000000  0.333333  0.333333      2.000000
  0.333333  0.333333  0.333333      2.000000
 -0.333333  0.333333  0.333333      2.000000
  0.000000 -0.333333  0.333333      2.000000
  0.333333 -0.333333  0.333333      2.000000
 -0.333333 -0.333333  0.333333      2.000000

 Following cartesian coordinates:
            Coordinates               Weight
  0.000000  0.000000  0.000000      1.000000
  0.166667  0.000000  0.000000      2.000000
  0.000000  0.166667  0.000000      2.000000
  0.166667  0.166667  0.000000      2.000000
 -0.166667  0.166667  0.000000      2.000000
  0.000000  0.000000  0.166667      2.000000
  0.166667  0.000000  0.166667      2.000000
 -0.166667  0.000000  0.166667      2.000000
  0.000000  0.166667  0.166667      2.000000
  0.166667  0.166667  0.166667      2.000000
 -0.166667  0.166667  0.166667      2.000000
  0.000000 -0.166667  0.166667      2.000000
  0.166667 -0.166667  0.166667      2.000000
 -0.166667 -0.166667  0.166667      2.000000

 SYSTEM =  SQS-NiFe
 POSCAR =  POSCAR

 Startparameter for this run:
   NWRITE =      2    write-flag & timer
   PREC   = accura    normal or accurate (medium, high low for compatibility)
   ISTART =      0    job   : 0-new  1-cont  2-samecut
   ICHARG =      2    charge: 1-file 2-atom 10-const
   ISPIN  =      2    spin polarized calculation?
   LNONCOLLINEAR =      F non collinear calculations
   LSORBIT =      F    spin-orbit coupling
   INIWAV =      1    electr: 0-lowe 1-rand  2-diag
   LASPH  =      F    aspherical Exc in radial PAW
   METAGGA=      F    non-selfconsistent MetaGGA calc.

 Electronic Relaxation 1
   ENCUT  =  520.0 eV  38.22 Ry    6.18 a.u.  13.18 13.18 13.18*2*pi/ulx,y,z
   ENINI  =  520.0     initial cutoff
   ENAUG  =  544.6 eV  augmentation charge cutoff
   NELM   =    200;   NELMIN=  2; NELMDL= -5     # of ELM steps
   EDIFF  = 0.1E-04   stopping-criterion for ELM
   LREAL  =      T    real-space projection
   NLSPLINE    = F    spline interpolate recip. space projectors
   LCOMPAT=      F    compatible to vasp.4.4
   GGA_COMPAT  = T    GGA compatible to vasp.4.4-vasp.4.6
   LMAXPAW     = -100 max onsite density
   LMAXMIX     =    2 max onsite mixed and CHGCAR
   VOSKOWN=      0    Vosko Wilk Nusair interpolation
   ROPT   =   -0.00025  -0.00025
 Ionic relaxation
   EDIFFG = -.2E-01   stopping-criterion for IOM
   NSW    =     99    number of steps for IOM
   NBLOCK =      1;   KBLOCK =     99    inner block; outer block
   IBRION =      2    ionic relax: 0-MD 1-quasi-New 2-CG
   NFREE  =      1    steps in history (QN), initial steepest desc. (CG)
   ISIF   =      2    stress and relaxation
[...]
 next E    =  -198.256329   (d E  =  -0.01474)

[...]

 d Force = 0.3453735E-02[-0.694E-03, 0.760E-02]  d Energy = 0.3404464E-02 0.493E-04
 d Force = 0.4423166E+01[ 0.420E+01, 0.464E+01]  d Ewald  = 0.4423300E+01-0.134E-03

 real space projection operators:
  max/ min on nodes  :       1972.55       1278.00

[...]

 eigenvalue-minimisations  : 11308
 total energy-change (2. order) :-0.1396468E-04  (-0.9155890E-05)
 number of electron     303.9999867 magnetization      37.9858227
 augmentation part      181.0711994 magnetization      33.0431591

[...]

 Broyden mixing:
  rms(total) = 0.45869E-02    rms(broyden)= 0.45867E-02
  rms(prec ) = 0.71787E-02
  weight for this iteration     100.00

 eigenvalues of (default mixing * dielectric matrix)
  average eigenvalue GAMMA=   0.5966
  2.4720  0.8674  0.6708  0.2308  0.1699  0.1336  0.1170  0.1113

[...]

--------------------------------------- Iteration      8(  10)  ---------------------------------------

 eigenvalue-minimisations  :  6186
 total energy-change (2. order) : 0.7592451E-05  (-0.9851109E-06)
 number of electron     303.9999867 magnetization      37.9858703
 augmentation part      181.0734533 magnetization      33.0420622

 Free energy of the ion-electron system (eV)
  alpha Z        PSCENC =      1633.54701045
  Ewald energy   TEWEN  =    -26923.96990925
  -Hartree energ DENC   =     -6413.45834012
  -exchange      EXHF   =         0.00000000
  -V(xc)+E(xc)   XCENC  =       775.15076154
  PAW double counting   =     33114.26601360   -34834.99428049
  entropy T*S    EENTRO =        -0.02996170
  eigenvalues    EBANDS =      1832.62691846
  atomic energy  EATOM  =     30618.60351129
  Solvation  Ediel_sol  =         0.00000000
  free energy    TOTEN  =      -198.25827621 eV

  energy without entropy =     -198.22831451  energy(sigma->0) =     -198.24828898

 average (electrostatic) potential at core
  the test charge radii are     0.9791  1.0103
  (the norm of the test charge is              1.0000)
       1 -82.9526       2 -82.9914       3 -82.9510       4 -82.8936       5 -82.9434
       6 -82.9435       7 -82.9289       8 -82.9396       9 -82.9534      10 -82.9482
      11 -82.9809      12 -82.9193      13 -82.9902      14 -82.9743      15 -82.9681
      16 -82.9664      17 -82.9629      18 -82.9550      19 -82.9451      20 -82.9234
      21 -82.9848      22 -82.9920      23 -82.9040      24 -82.9878      25 -41.1762
      26 -41.1477      27 -41.1936      28 -41.0514      29 -41.1724      30 -41.0713
      31 -41.2279      32 -41.1169

 E-fermi :   8.3720     XC(G=0): -13.1422     alpha+bet :-15.5409

[...]

 spin component 2

[...]

 k-point    14 :      -0.3333   -0.3333    0.3333
  band No.  band energies     occupation
      1       0.5908      1.00000
      2       1.5235      1.00000
      3       1.5754      1.00000
      4       1.6000      1.00000
      5       2.3899      1.00000
      6       2.4479      1.00000
      7       2.4754      1.00000
      8       3.1010      1.00000
      9       4.2389      1.00000
     10       4.2611      1.00000
     11       4.2735      1.00000
     12       4.6189      1.00000
     13       4.6232      1.00000
     14       4.6391      1.00000
     15       4.6523      1.00000
     16       4.6684      1.00000
     17       4.6879      1.00000
     18       4.6928      1.00000
     19       4.7085      1.00000
     20       4.7268      1.00000
     21       4.7456      1.00000
     22       4.7697      1.00000
     23       4.7835      1.00000
     24       5.1005      1.00000
     25       5.1096      1.00000
     26       5.1177      1.00000
     27       5.1562      1.00000
     28       5.1650      1.00000
     29       5.1837      1.00000
     30       5.2001      1.00000
     31       5.2361      1.00000
     32       5.2543      1.00000
     33       5.3113      1.00000
     34       5.3175      1.00000
     35       5.3337      1.00000
     36       5.5101      1.00000
     37       5.5216      1.00000
     38       5.5401      1.00000
     39       5.5533      1.00000
     40       5.5735      1.00000
     41       5.5944      1.00000
     42       5.6186      1.00000
     43       5.6299      1.00000
     44       5.6481      1.00000
     45       5.7092      1.00000
     46       5.7422      1.00000
     47       5.7789      1.00000
     48       5.8319      1.00000
     49       5.8478      1.00000
     50       5.8693      1.00000
     51       5.8960      1.00000
     52       5.9312      1.00000
     53       5.9430      1.00000
     54       6.1800      1.00000
     55       6.1874      1.00000
     56       6.2206      1.00000
     57       6.3174      1.00000
     58       6.3315      1.00000
     59       6.3668      1.00000
     60       6.3799      1.00000
[...]
    193      14.9968      0.00000
    194      15.2999      0.00000
    195      15.3964      0.00000
    196      15.8105      0.00000
    197      15.8269      0.00000
    198      15.8643      0.00000
    199      16.7204      0.00000
    200      16.7761      0.00000
    201      16.8056      0.00000
    202      16.9107      0.00000
    203      16.9438      0.00000
    204      17.0041      0.00000
    205      17.9458      0.00000
    206      17.9749      0.00000
    207      18.0037      0.00000

[...]

 soft charge-density along one line, spin component           2
         0         1         2         3         4         5         6         7         8         9
 total charge-density along one line

------------------------ aborting loop because EDIFF is reached ----------------------------------------

[...]

  FORCE on cell =-STRESS in cart. coord.  units (eV):
  Direction    XX          YY          ZZ          XY          YZ          ZX
  Alpha Z  1633.54701  1633.54701  1633.54701
  Ewald   -8968.40703 -8935.41774 -9020.25629     0.31539    -0.12547     2.40626
  Hartree  2144.59695  2176.63676  2092.24103     0.31464    -0.02516     2.39265
  E(xc)   -1640.92600 -1640.85322 -1640.91163     0.00892    -0.00705    -0.01772
  Local     229.66019   165.21808   333.82528    -1.27724     0.76744    -5.41016
  n-local  -385.11166  -384.84310  -384.80371    -0.02091    -0.18825    -0.25494
  augment  4538.29735  4537.89774  4538.34118     0.50798    -0.43312     0.66885
  Kinetic  2448.55890  2447.88239  2449.33709    -0.11410    -0.32143     0.22976
  Fock        0.00000     0.00000     0.00000     0.00000     0.00000     0.00000
  Total       0.21571     0.06791     1.31996    -0.26533    -0.33305     0.01470
  in kB       0.96972     0.30529     5.93379    -1.19276    -1.49720     0.06610

 VOLUME and BASIS-vectors are now :
  energy-cutoff  :      520.00
  volume of cell :      356.40
      direct lattice vectors                 reciprocal lattice vectors
     7.090000000  0.000000000  0.000000000     0.141043724  0.000000000  0.000000000
     0.000000000  7.090000000  0.000000000     0.000000000  0.141043724  0.000000000
     0.000000000  0.000000000  7.090000000     0.000000000  0.000000000  0.141043724

  length of vectors
     7.090000000  7.090000000  7.090000000     0.141043724  0.141043724  0.141043724

 FORCES acting on ions
    electron-ion (+dipol)            ewald-force                    non-local-force                 convergence-correction
   -.337E+02 -.153E+02 -.225E+02   0.337E+02 0.153E+02 0.226E+02   -.245E-02 0.523E-02 -.105E-02   0.203E-02 0.569E-02 -.430E-02
   -.633E+02 0.280E+02 -.962E+02   0.634E+02 -.281E+02 0.962E+02   -.129E+00 0.118E+00 -.598E-01   -.711E-02 0.792E-02 -.563E-02
   -.121E+02 0.207E+02 0.929E+02   0.122E+02 -.208E+02 -.929E+02   -.147E-01 0.851E-01 0.830E-02   -.791E-02 -.610E-02 0.106E-01
   -.310E+02 0.128E+02 -.176E+02   0.309E+02 -.128E+02 0.176E+02   0.916E-01 -.140E-02 0.248E-01   -.131E-01 -.523E-02 0.423E-02
   -.580E+02 -.222E+02 -.529E+02   0.580E+02 0.223E+02 0.530E+02   -.329E-02 -.256E-01 -.399E-01   -.415E-03 -.652E-02 -.303E-02
   -.351E+02 -.306E+02 0.773E+02   0.351E+02 0.306E+02 -.774E+02   0.278E-01 -.864E-02 0.988E-01   -.109E-01 0.412E-02 -.147E-02
   -.306E+02 -.556E+00 -.257E+02   0.306E+02 0.564E+00 0.257E+02   0.694E-01 0.203E-02 -.168E-01   -.231E-01 -.550E-02 0.262E-02
   0.344E+02 -.120E+02 0.166E+02   -.344E+02 0.120E+02 -.165E+02   -.552E-01 -.100E-02 -.103E+00   0.462E-03 0.469E-02 -.106E-01
   0.619E+02 -.201E+02 -.104E+03   -.620E+02 0.201E+02 0.104E+03   0.111E+00 -.106E-01 -.233E+00   0.567E-02 0.152E-02 0.113E-01
   -.674E+01 -.374E+02 -.723E+02   0.671E+01 0.374E+02 0.724E+02   -.188E-02 -.239E-01 -.485E-02   0.225E-01 0.652E-02 -.516E-02
   -.385E+02 0.558E+02 0.224E+02   0.385E+02 -.558E+02 -.224E+02   -.246E-01 -.293E-01 0.288E-01   -.126E-01 -.106E-01 -.305E-02
   -.146E+02 -.188E+02 0.495E+02   0.147E+02 0.187E+02 -.494E+02   -.169E-01 0.304E-01 -.134E+00   -.896E-02 0.602E-02 0.911E-02
   -.861E+02 0.317E+02 0.753E+02   0.862E+02 -.317E+02 -.754E+02   -.105E+00 0.266E-01 0.158E+00   -.136E-01 -.374E-02 -.478E-02
   -.369E+02 0.100E+01 -.141E+02   0.369E+02 -.997E+00 0.139E+02   0.132E-01 -.161E-01 0.213E+00   -.183E-01 0.464E-02 0.572E-03
   0.392E+02 -.616E+02 -.209E+02   -.393E+02 0.617E+02 0.208E+02   0.703E-01 -.684E-01 0.315E-01   0.462E-03 0.131E-02 0.710E-02
   0.376E+02 0.105E+02 0.250E+02   -.376E+02 -.104E+02 -.249E+02   -.129E-01 -.442E-02 -.830E-01   0.117E-01 -.822E-02 -.325E-02
   0.590E+02 0.174E+02 -.524E+02   -.589E+02 -.174E+02 0.524E+02   -.451E-01 -.336E-01 -.220E-01   0.186E-02 -.548E-02 0.689E-02
   0.379E+02 -.354E+02 0.761E+02   -.379E+02 0.354E+02 -.762E+02   0.476E-01 -.801E-01 0.969E-01   0.104E-01 0.683E-02 -.930E-03
   0.289E+02 0.753E+00 0.175E+02   -.288E+02 -.746E+00 -.175E+02   -.776E-01 -.115E-01 -.752E-01   0.232E-01 0.704E-02 -.654E-02
   0.332E+02 0.369E+02 -.709E+02   -.332E+02 -.369E+02 0.708E+02   0.139E-01 0.212E-01 0.681E-01   0.126E-01 -.518E-02 -.303E-02
   -.398E+02 -.112E+01 0.229E+02   0.399E+02 0.113E+01 -.229E+02   -.830E-01 0.263E-02 0.103E-01   -.969E-02 0.166E-02 0.142E-02
   0.825E+02 0.353E+02 0.733E+02   -.826E+02 -.354E+02 -.734E+02   0.777E-01 0.461E-01 0.922E-01   0.148E-01 -.501E-02 -.233E-02
   0.330E+02 0.679E+00 0.225E+02   -.330E+02 -.664E+00 -.225E+02   -.193E-01 -.137E-01 0.252E-01   0.171E-01 -.569E-02 -.437E-02
   0.381E+02 -.143E+01 -.260E+02   -.382E+02 0.143E+01 0.261E+02   0.644E-01 0.128E-01 -.290E-01   0.899E-02 -.112E-01 0.443E-02
   0.123E+02 -.355E+02 -.740E+02   -.124E+02 0.356E+02 0.742E+02   0.591E-01 -.125E+00 -.221E+00   -.196E-01 0.882E-02 0.921E-05
   -.356E+02 -.548E+02 0.269E+02   0.358E+02 0.549E+02 -.270E+02   -.200E+00 -.182E+00 0.105E+00   0.580E-03 0.124E-01 0.471E-03
   -.348E+02 0.360E+02 -.738E+02   0.348E+02 -.361E+02 0.739E+02   -.681E-01 0.897E-01 -.165E+00   -.780E-02 -.829E-02 0.216E-02
   -.390E+02 0.273E+01 0.301E+02   0.391E+02 -.274E+01 -.302E+02   -.178E+00 0.933E-02 0.698E-01   -.521E-02 -.112E-02 -.231E-02
   0.104E+02 -.246E+02 0.100E+03   -.104E+02 0.247E+02 -.101E+03   0.194E-01 -.965E-01 0.226E+00   0.368E-02 0.416E-02 -.811E-02
   0.385E+02 0.546E+02 -.311E+02   -.388E+02 -.550E+02 0.311E+02   0.221E+00 0.401E+00 -.464E-01   0.107E-01 -.114E-02 0.442E-02
   0.123E+02 0.258E+02 0.506E+02   -.124E+02 -.257E+02 -.507E+02   0.228E-01 -.519E-01 0.177E-01   0.738E-02 -.540E-02 -.248E-02
   0.368E+02 0.632E+00 -.247E+02   -.369E+02 -.648E+00 0.248E+02   0.115E+00 0.398E-02 -.415E-01   0.497E-02 0.919E-02 0.570E-02
   0.102E-01 -.716E-01 0.141E-02   0.249E-12 0.269E-12 -.231E-12   -.126E-01 0.708E-01 -.258E-02   0.833E-03 -.196E-02 -.293E-03

 POSITION                                       TOTAL-FORCE (eV/Angst)
     -0.00530      0.00754      3.54496        -0.005337      0.004783      0.004450
      0.01407      1.76444      5.32635         0.004315      0.003667     -0.018707
     -0.01257      1.77946      1.76375        -0.003656      0.001952      0.005332
     -0.00501      3.53257      3.53438         0.002813      0.006386      0.009099
     -0.01333      5.33749      5.31861        -0.005426     -0.003820     -0.007055
      1.76385      0.01229      1.77300         0.000721     -0.005064      0.011076
      1.77055      1.77095      3.53727         0.006240      0.005122      0.003380
      3.55711     -0.01415      3.55100        -0.000834      0.001061     -0.000508
      3.52928      1.78546      5.30443        -0.001681      0.000537     -0.007045
      5.31208      0.00284      5.32264        -0.004128     -0.006891      0.002628
      0.00740      3.55746     -0.00167         0.001605      0.011082      0.005772
     -0.00060      5.30380      1.77878         0.006129     -0.000465     -0.008800
      1.78326      3.53921      1.77003        -0.005871     -0.001222      0.012707
      1.75565      5.32256      3.54667         0.002923     -0.007253     -0.007079
      3.54190      0.02240      0.00240        -0.002504      0.000268     -0.007353
      3.55693      3.55679      3.54873        -0.003154      0.000882     -0.003455
      3.55508      5.30333      5.32361         0.004653      0.003296     -0.015493
      5.33173      0.00041      1.77559         0.002774      0.000060      0.009185
      5.31804      1.77602      3.55348        -0.005186      0.002067     -0.014386
      5.33643      3.54197      5.31496        -0.001323      0.004591      0.012313
      1.78419      5.31026      0.00879        -0.005432      0.007453      0.008686
      5.30126      3.54011      1.75713        -0.000062     -0.010009      0.011464
      5.32781      5.31240      3.54489        -0.001001     -0.003546      0.001925
      5.29853      5.31033      0.00320         0.011698      0.008540     -0.002858
      1.79913     -0.02277      5.27993         0.009114     -0.003712     -0.002152
     -0.00886     -0.04741      0.02185        -0.011336     -0.012752      0.001053
      1.73603      3.57716      5.25709        -0.003670      0.003109      0.008456
      1.75458      1.78224      0.02471        -0.005956     -0.000397     -0.001785
      3.55482      1.75023      1.85020         0.007530     -0.010266     -0.005634
      3.55632      3.54482     -0.03484        -0.002342     -0.001959      0.002195
      3.54174      5.35178      1.80338        -0.003854      0.005739     -0.008484
      5.33792      1.76803     -0.02530         0.012238     -0.003238      0.001073
    total drift:                               -0.001494     -0.002755     -0.001453

  FREE ENERGIE OF THE ION-ELECTRON SYSTEM (eV)
  free  energy   TOTEN  =      -198.25827621 eV

  energy  without entropy=     -198.22831451  energy(sigma->0) =     -198.24828898

 d Force = 0.2318112E-02[ 0.466E-03, 0.417E-02]  d Energy = 0.2285523E-02 0.326E-04
 d Force = 0.2221025E+01[ 0.209E+01, 0.235E+01]  d Ewald  = 0.2220987E+01 0.376E-04

 Conjugate gradient step on ions:
 trial-energy change:   -0.002286  1 .order   -0.002318   -0.004170   -0.000466
  (g-gl).g = 0.314E-02      g.g   = 0.266E-02  gl.gl    = 0.108E-01
 g(Force)  = 0.266E-02   g(Stress)= 0.000E+00 ortho     =-0.485E-03
 gamma     =   0.29032
 trial     =   1.65333
 opt step  =   1.86149  (harmonic =   1.86149) maximal distance =0.00588225
 next E    =  -198.258338   (d E  =  -0.00235)

 reached required accuracy - stopping structural energy minimisation

 total charge

[...]

 magnetization (x)

# of ion       s       p       d       tot
    1       -0.008  -0.031   0.729   0.690
    2       -0.019  -0.040   0.737   0.678
    3       -0.013  -0.032   0.711   0.666
    4       -0.010  -0.025   0.685   0.649
    5       -0.015  -0.033   0.704   0.657
    6       -0.015  -0.036   0.702   0.651
    7       -0.013  -0.033   0.696   0.651
    8       -0.015  -0.031   0.693   0.648
    9       -0.018  -0.039   0.716   0.659
   10       -0.011  -0.030   0.719   0.678
   11       -0.011  -0.036   0.734   0.688
   12       -0.009  -0.027   0.703   0.667
   13       -0.016  -0.036   0.739   0.687
   14       -0.014  -0.034   0.719   0.671
   15       -0.015  -0.043   0.732   0.674
   16       -0.012  -0.037   0.721   0.673
   17       -0.013  -0.033   0.714   0.668
   18       -0.017  -0.037   0.709   0.656
   19       -0.008  -0.029   0.719   0.682
   20       -0.011  -0.029   0.697   0.657
   21       -0.016  -0.041   0.735   0.678
   22       -0.017  -0.036   0.740   0.687
   23       -0.010  -0.028   0.695   0.657
   24       -0.012  -0.033   0.733   0.688
   25        0.008  -0.014   2.795   2.788
   26        0.004  -0.015   2.770   2.759
   27        0.008  -0.013   2.796   2.791
   28        0.001  -0.023   2.730   2.708
   29        0.006  -0.016   2.783   2.773
   30       -0.000  -0.022   2.735   2.713
   31        0.010  -0.011   2.820   2.820
   32        0.006  -0.015   2.758   2.749
tot         -0.275  -0.936  39.373  38.162