 vasp.5.4.4.18Apr17-6-g9f103f2a35 (build Sep 06 2021 19:49:22) complex

 executed on             LinuxIFC date 2021.12.23  22:46:34

 INCAR:
 POTCAR:    PAW_PBE Fe 06Sep2000
 POTCAR:    PAW_PBE Fe 06Sep2000
   VRHFIN =Fe:  d7 s1

   TITEL  = PAW_PBE Fe 06Sep2000
   POMASS =   55.847; ZVAL   =    8.000    mass and valenz
   ENMAX  =  267.882; ENMIN  =  200.911 eV

 Optimization of the real space projectors (new method)

 maximal supplied QI-value         = 16.25
 optimisation between [QCUT,QGAM] = [ 11.54, 23.24] = [ 37.28,151.24] Ry
 Optimized for a Real-space Cutoff    1.53 Angstroem

   l    n(q)    QCUT    max X(q) W(low)/X(q) W(high)/X(q)  e(spline)
   2     10    11.539    80.901    0.11E-03    0.14E-03    0.21E-06
   2     10    11.539    75.754    0.11E-03    0.14E-03    0.22E-06
   0     11    11.539    58.752    0.52E-04    0.18E-04    0.33E-06
   0     11    11.539    30.679    0.44E-04    0.16E-04    0.30E-06
   1     10    11.539    17.977    0.53E-04    0.29E-04    0.13E-06
   1     10    11.539    13.559    0.44E-04    0.25E-04    0.11E-06
  PAW_PBE Fe 06Sep2000                  :

 POSCAR: Fe-Iron-gamma-primitive
  positions in direct lattice
 exchange correlation table for  LEXCH =        8
   RHO(1)=    0.500       N(1)  =     2000
   RHO(2)=  100.500       N(2)  =     4000

 ion  position               nearest neighbor table
   1  0.000  0.000  0.000-

IMPORTANT INFORMATION: All symmetrisations will be switched off!
NOSYMM: (Re-)initialisation of all symmetry stuff for point group C_1.

Automatic generation of k-mesh.
 generate k-points for:   16   16   16
Space group operators:
 irot       det(A)        alpha          n_x          n_y          n_z        tau_x        tau_y        tau_z
    1     1.000000     0.000000     1.000000     0.000000     0.000000     0.000000     0.000000     0.000000

 Subroutine IBZKPT returns following result:

 Found   2052 irreducible k-points:

 Following reciprocal coordinates:
            Coordinates               Weight
  0.000000  0.000000  0.000000      1.000000
  0.062500  0.000000  0.000000      2.000000
  0.125000  0.000000  0.000000      2.000000
  0.187500  0.000000  0.000000      2.000000
  0.250000  0.000000  0.000000      2.000000
  0.312500  0.000000  0.000000      2.000000
  0.375000  0.000000  0.000000      2.000000
  0.437500  0.000000  0.000000      2.000000
  0.500000  0.000000  0.000000      1.000000
  0.000000  0.062500  0.000000      2.000000
  0.062500  0.062500  0.000000      2.000000
  0.125000  0.062500  0.000000      2.000000
  0.187500  0.062500  0.000000      2.000000
  0.250000  0.062500  0.000000      2.000000
  0.312500  0.062500  0.000000      2.000000
  0.375000  0.062500  0.000000      2.000000
  0.437500  0.062500  0.000000      2.000000
  0.500000  0.062500  0.000000      2.000000
 -0.437500  0.062500  0.000000      2.000000
 -0.375000  0.062500  0.000000      2.000000
 -0.312500  0.062500  0.000000      2.000000
 -0.250000  0.062500  0.000000      2.000000
 -0.187500  0.062500  0.000000      2.000000
 -0.125000  0.062500  0.000000      2.000000
 -0.062500  0.062500  0.000000      2.000000
  0.000000  0.125000  0.000000      2.000000
  0.062500  0.125000  0.000000      2.000000
  0.125000  0.125000  0.000000      2.000000
  0.187500  0.125000  0.000000      2.000000
  0.250000  0.125000  0.000000      2.000000
  0.312500  0.125000  0.000000      2.000000
  0.375000  0.125000  0.000000      2.000000
  0.437500  0.125000  0.000000      2.000000
  0.500000  0.125000  0.000000      2.000000
 -0.437500  0.125000  0.000000      2.000000
 -0.375000  0.125000  0.000000      2.000000
 -0.312500  0.125000  0.000000      2.000000
 -0.250000  0.125000  0.000000      2.000000
 -0.187500  0.125000  0.000000      2.000000
 -0.125000  0.125000  0.000000      2.000000
 -0.062500  0.125000  0.000000      2.000000
  0.000000  0.187500  0.000000      2.000000
  0.062500  0.187500  0.000000      2.000000
  0.125000  0.187500  0.000000      2.000000
  0.187500  0.187500  0.000000      2.000000
  0.250000  0.187500  0.000000      2.000000
  0.312500  0.187500  0.000000      2.000000
  0.375000  0.187500  0.000000      2.000000
  0.437500  0.187500  0.000000      2.000000
  0.500000  0.187500  0.000000      2.000000
 -0.437500  0.187500  0.000000      2.000000
 -0.375000  0.187500  0.000000      2.000000
 -0.312500  0.187500  0.000000      2.000000
 -0.250000  0.187500  0.000000      2.000000
 -0.187500  0.187500  0.000000      2.000000
 -0.125000  0.187500  0.000000      2.000000
 -0.062500  0.187500  0.000000      2.000000
  0.000000  0.250000  0.000000      2.000000
  0.062500  0.250000  0.000000      2.000000
  0.125000  0.250000  0.000000      2.000000
[...]
 -0.375000  0.437500  0.500000      2.000000
 -0.312500  0.437500  0.500000      2.000000
 -0.250000  0.437500  0.500000      2.000000
 -0.187500  0.437500  0.500000      2.000000
 -0.125000  0.437500  0.500000      2.000000
 -0.062500  0.437500  0.500000      2.000000
  0.000000  0.500000  0.500000      1.000000
  0.062500  0.500000  0.500000      2.000000
  0.125000  0.500000  0.500000      2.000000
  0.187500  0.500000  0.500000      2.000000
  0.250000  0.500000  0.500000      2.000000
  0.312500  0.500000  0.500000      2.000000
  0.375000  0.500000  0.500000      2.000000
  0.437500  0.500000  0.500000      2.000000
  0.500000  0.500000  0.500000      1.000000

 Following cartesian coordinates:
            Coordinates               Weight
  0.000000  0.000000  0.000000      1.000000
  0.024614 -0.014211 -0.010049      2.000000
  0.049228 -0.028422 -0.020097      2.000000
  0.073842 -0.042633 -0.030146      2.000000
  0.098456 -0.056844 -0.040195      2.000000
  0.123070 -0.071055 -0.050243      2.000000
  0.147684 -0.085266 -0.060292      2.000000
  0.172298 -0.099477 -0.070341      2.000000
  0.196912 -0.113687 -0.080389      1.000000
  0.000000  0.028422 -0.010049      2.000000
  0.024614  0.014211 -0.020097      2.000000
  0.049228 -0.000000 -0.030146      2.000000
  0.073842 -0.014211 -0.040195      2.000000
  0.098456 -0.028422 -0.050243      2.000000
  0.123070 -0.042633 -0.060292      2.000000
  0.147684 -0.056844 -0.070341      2.000000
  0.172298 -0.071055 -0.080389      2.000000
  0.196912 -0.085266 -0.090438      2.000000
 -0.172298  0.127898  0.060292      2.000000
 -0.147684  0.113687  0.050243      2.000000
 -0.123070  0.099477  0.040195      2.000000
 -0.098456  0.085266  0.030146      2.000000
 -0.073842  0.071055  0.020097      2.000000
 -0.049228  0.056844  0.010049      2.000000
 -0.024614  0.042633 -0.000000      2.000000
  0.000000  0.056844 -0.020097      2.000000
  0.024614  0.042633 -0.030146      2.000000
  0.049228  0.028422 -0.040195      2.000000
  0.073842  0.014211 -0.050243      2.000000
  0.098456 -0.000000 -0.060292      2.000000
  0.123070 -0.014211 -0.070341      2.000000
  0.147684 -0.028422 -0.080389      2.000000
  0.172298 -0.042633 -0.090438      2.000000
  0.196912 -0.056844 -0.100486      2.000000
 -0.172298  0.156320  0.050243      2.000000
 -0.147684  0.142109  0.040195      2.000000
 -0.123070  0.127898  0.030146      2.000000
 -0.098456  0.113687  0.020097      2.000000
 -0.073842  0.099477  0.010049      2.000000
 -0.049228  0.085266 -0.000000      2.000000
 -0.024614  0.071055 -0.010049      2.000000
  0.000000  0.085266 -0.030146      2.000000
  0.024614  0.071055 -0.040195      2.000000
  0.049228  0.056844 -0.050243      2.000000
  0.073842  0.042633 -0.060292      2.000000
  0.098456  0.028422 -0.070341      2.000000
  0.123070  0.014211 -0.080389      2.000000
  0.147684 -0.000000 -0.090438      2.000000
  0.172298 -0.014211 -0.100486      2.000000
  0.196912 -0.028422 -0.110535      2.000000
 -0.172298  0.184742  0.040195      2.000000
 -0.147684  0.170531  0.030146      2.000000
 -0.123070  0.156320  0.020097      2.000000
 -0.098456  0.142109  0.010049      2.000000
 -0.073842  0.127898 -0.000000      2.000000
 -0.049228  0.113687 -0.010049      2.000000
 -0.024614  0.099477 -0.020097      2.000000
  0.000000  0.113687 -0.040195      2.000000
  0.024614  0.099477 -0.050243      2.000000
  0.049228  0.085266 -0.060292      2.000000
[...]
 -0.147684  0.284219  0.231119      2.000000
 -0.123070  0.270008  0.221070      2.000000
 -0.098456  0.255797  0.211022      2.000000
 -0.073842  0.241586  0.200973      2.000000
 -0.049228  0.227375  0.190924      2.000000
 -0.024614  0.213164  0.180876      2.000000
  0.000000  0.227375  0.160778      1.000000
  0.024614  0.213164  0.150730      2.000000
  0.049228  0.198953  0.140681      2.000000
  0.073842  0.184742  0.130632      2.000000
  0.098456  0.170531  0.120584      2.000000
  0.123070  0.156320  0.110535      2.000000
  0.147684  0.142109  0.100486      2.000000
  0.172298  0.127898  0.090438      2.000000
  0.196912  0.113687  0.080389      1.000000

 TETIRR: Found  12288 inequivalent tetrahedra from    24576

 SYSTEM =  SQS-NiFe
 POSCAR =  Fe-Iron-gamma-primitive

 Startparameter for this run:
   NWRITE =      2    write-flag & timer
   PREC   = accura    normal or accurate (medium, high low for compatibility)
   ISTART =      0    job   : 0-new  1-cont  2-samecut
   ICHARG =     11    charge: 1-file 2-atom 10-const
   ISPIN  =      2    spin polarized calculation?
   LNONCOLLINEAR =      F non collinear calculations
   LSORBIT =      F    spin-orbit coupling
   INIWAV =      1    electr: 0-lowe 1-rand  2-diag
   LASPH  =      F    aspherical Exc in radial PAW
   METAGGA=      F    non-selfconsistent MetaGGA calc.

 Electronic Relaxation 1
   ENCUT  =  520.0 eV  38.22 Ry    6.18 a.u.   4.72  4.72  4.72*2*pi/ulx,y,z
   ENINI  =  520.0     initial cutoff
   ENAUG  =  511.4 eV  augmentation charge cutoff
   NELM   =    200;   NELMIN=  2; NELMDL= -5     # of ELM steps
   EDIFF  = 0.1E-05   stopping-criterion for ELM
   LREAL  =      T    real-space projection
   NLSPLINE    = F    spline interpolate recip. space projectors
   LCOMPAT=      F    compatible to vasp.4.4
   GGA_COMPAT  = T    GGA compatible to vasp.4.4-vasp.4.6
   LMAXPAW     = -100 max onsite density
   LMAXMIX     =    2 max onsite mixed and CHGCAR
   VOSKOWN=      0    Vosko Wilk Nusair interpolation
   ROPT   =   -0.00025
 Ionic relaxation
   EDIFFG = -.2E-01   stopping-criterion for IOM
   NSW    =      0    number of steps for IOM
   NBLOCK =      1;   KBLOCK =      1    inner block; outer block
   IBRION =     -1    ionic relax: 0-MD 1-quasi-New 2-CG
   NFREE  =      0    steps in history (QN), initial steepest desc. (CG)
   ISIF   =      2    stress and relaxation
   IWAVPR =     10    prediction:  0-non 1-charg 2-wave 3-comb
   ISYM   =      0    0-nonsym 1-usesym 2-fastsym
   LCORR  =      T    Harris-Foulkes like correction to forces

   POTIM  = 0.5000    time-step for ionic-motion
   TEIN   =    0.0    initial temperature
   TEBEG  =    0.0;   TEEND  =   0.0 temperature during run
   SMASS  =  -3.00    Nose mass-parameter (am)
   estimated Nose-frequenzy (Omega)   =  0.10E-29 period in steps =****** mass=  -0.147E-27a.u.
   SCALEE = 1.0000    scale energy and forces
   NPACO  =    256;   APACO  = 16.0  distance and # of slots for P.C.
   PSTRESS=    0.0 pullay stress

[...]
   0.31250000  0.50000000  0.50000000       0.000
   0.37500000  0.50000000  0.50000000       0.000
   0.43750000  0.50000000  0.50000000       0.000
   0.50000000  0.50000000  0.50000000       0.000

 position of ions in fractional coordinates (direct lattice)
   0.00000000  0.00000000  0.00000000

 position of ions in cartesian coordinates  (Angst):
   0.00000000  0.00000000  0.00000000

 k-point  1 :   0.0000 0.0000 0.0000  plane waves:     331
 k-point  2 :   0.0625 0.0000 0.0000  plane waves:     322
 k-point  3 :   0.1250 0.0000 0.0000  plane waves:     319
 k-point  4 :   0.1875 0.0000 0.0000  plane waves:     311
 k-point  5 :   0.2500 0.0000 0.0000  plane waves:     311
 k-point  6 :   0.3125 0.0000 0.0000  plane waves:     308
 k-point  7 :   0.3750 0.0000 0.0000  plane waves:     308
 k-point  8 :   0.4375 0.0000 0.0000  plane waves:     317
 k-point  9 :   0.5000 0.0000 0.0000  plane waves:     302
 k-point 10 :   0.0000 0.0625 0.0000  plane waves:     322
 k-point 11 :   0.0625 0.0625 0.0000  plane waves:     327
 k-point 12 :   0.1250 0.0625 0.0000  plane waves:     318
 k-point 13 :   0.1875 0.0625 0.0000  plane waves:     315
 k-point 14 :   0.2500 0.0625 0.0000  plane waves:     313
 k-point 15 :   0.3125 0.0625 0.0000  plane waves:     309
 k-point 16 :   0.3750 0.0625 0.0000  plane waves:     309
 k-point 17 :   0.4375 0.0625 0.0000  plane waves:     315
 k-point 18 :   0.5000 0.0625 0.0000  plane waves:     315
 k-point 19 :  -0.4375 0.0625 0.0000  plane waves:     315
 k-point 20 :  -0.3750 0.0625 0.0000  plane waves:     312
 k-point 21 :  -0.3125 0.0625 0.0000  plane waves:     310
 k-point 22 :  -0.2500 0.0625 0.0000  plane waves:     307
 k-point 23 :  -0.1875 0.0625 0.0000  plane waves:     312
 k-point 24 :  -0.1250 0.0625 0.0000  plane waves:     314
 k-point 25 :  -0.0625 0.0625 0.0000  plane waves:     317
 k-point 26 :   0.0000 0.1250 0.0000  plane waves:     319
 k-point 27 :   0.0625 0.1250 0.0000  plane waves:     318
 k-point 28 :   0.1250 0.1250 0.0000  plane waves:     315
 k-point 29 :   0.1875 0.1250 0.0000  plane waves:     311
 k-point 30 :   0.2500 0.1250 0.0000  plane waves:     308
 k-point 31 :   0.3125 0.1250 0.0000  plane waves:     309
 k-point 32 :   0.3750 0.1250 0.0000  plane waves:     317
 k-point 33 :   0.4375 0.1250 0.0000  plane waves:     312
 k-point 34 :   0.5000 0.1250 0.0000  plane waves:     312
 k-point 35 :  -0.4375 0.1250 0.0000  plane waves:     316
 k-point 36 :  -0.3750 0.1250 0.0000  plane waves:     314
 k-point 37 :  -0.3125 0.1250 0.0000  plane waves:     313
 k-point 38 :  -0.2500 0.1250 0.0000  plane waves:     311
 k-point 39 :  -0.1875 0.1250 0.0000  plane waves:     311
 k-point 40 :  -0.1250 0.1250 0.0000  plane waves:     317
 k-point 41 :  -0.0625 0.1250 0.0000  plane waves:     314
 k-point 42 :   0.0000 0.1875 0.0000  plane waves:     311
 k-point 43 :   0.0625 0.1875 0.0000  plane waves:     315
 k-point 44 :   0.1250 0.1875 0.0000  plane waves:     311
 k-point 45 :   0.1875 0.1875 0.0000  plane waves:     303
 k-point 46 :   0.2500 0.1875 0.0000  plane waves:     304
 k-point 47 :   0.3125 0.1875 0.0000  plane waves:     313
 k-point 48 :   0.3750 0.1875 0.0000  plane waves:     316
 k-point 49 :   0.4375 0.1875 0.0000  plane waves:     318
 k-point 50 :   0.5000 0.1875 0.0000  plane waves:     312
 k-point 51 :  -0.4375 0.1875 0.0000  plane waves:     307
 k-point 52 :  -0.3750 0.1875 0.0000  plane waves:     307
 k-point 53 :  -0.3125 0.1875 0.0000  plane waves:     312
 k-point 54 :  -0.2500 0.1875 0.0000  plane waves:     313
 k-point 55 :  -0.1875 0.1875 0.0000  plane waves:     309
 k-point 56 :  -0.1250 0.1875 0.0000  plane waves:     311
 k-point 57 :  -0.0625 0.1875 0.0000  plane waves:     312
 k-point 58 :   0.0000 0.2500 0.0000  plane waves:     311
 k-point 59 :   0.0625 0.2500 0.0000  plane waves:     313
 k-point 60 :   0.1250 0.2500 0.0000  plane waves:     308
[...]
 k-point 85 :  -0.3125 0.3125 0.0000  plane waves:     315
 k-point 86 :  -0.2500 0.3125 0.0000  plane waves:     309
 k-point 87 :  -0.1875 0.3125 0.0000  plane waves:     312
 k-point 88 :  -0.1250 0.3125 0.0000  plane waves:     313
 k-point 89 :  -0.0625 0.3125 0.0000  plane waves:     310
 k-point 90 :   0.0000 0.3750 0.0000  plane waves:     308
 k-point 91 :   0.0625 0.3750 0.0000  plane waves:     309
 k-point 92 :   0.1250 0.3750 0.0000  plane waves:     317
 k-point 93 :   0.1875 0.3750 0.0000  plane waves:     316
 k-point 94 :   0.2500 0.3750 0.0000  plane waves:     316
 k-point 95 :   0.3125 0.3750 0.0000  plane waves:     316
 k-point 96 :   0.3750 0.3750 0.0000  plane waves:     322
 k-point 97 :   0.4375 0.3750 0.0000  plane waves:     320
 k-point 98 :   0.5000 0.3750 0.0000  plane waves:     316
 k-point 99 :  -0.4375 0.3750 0.0000  plane waves:     314
 k-point ** :  -0.3750 0.3750 0.0000  plane waves:     308
 k-point ** :  -0.3125 0.3750 0.0000  plane waves:     313
 k-point ** :  -0.2500 0.3750 0.0000  plane waves:     309
 k-point ** :  -0.1875 0.3750 0.0000  plane waves:     307
 k-point ** :  -0.1250 0.3750 0.0000  plane waves:     314
 k-point ** :  -0.0625 0.3750 0.0000  plane waves:     312
 k-point ** :   0.0000 0.4375 0.0000  plane waves:     317
 k-point ** :   0.0625 0.4375 0.0000  plane waves:     315
 k-point ** :   0.1250 0.4375 0.0000  plane waves:     312
 k-point ** :   0.1875 0.4375 0.0000  plane waves:     318
 k-point ** :   0.2500 0.4375 0.0000  plane waves:     313
 k-point ** :   0.3125 0.4375 0.0000  plane waves:     313
 k-point ** :   0.3750 0.4375 0.0000  plane waves:     320
 k-point ** :   0.4375 0.4375 0.0000  plane waves:     322
 k-point ** :   0.5000 0.4375 0.0000  plane waves:     308
 k-point ** :  -0.4375 0.4375 0.0000  plane waves:     314
 k-point ** :  -0.3750 0.4375 0.0000  plane waves:     314
 k-point ** :  -0.3125 0.4375 0.0000  plane waves:     309
 k-point ** :  -0.2500 0.4375 0.0000  plane waves:     309
 k-point ** :  -0.1875 0.4375 0.0000  plane waves:     307
 k-point ** :  -0.1250 0.4375 0.0000  plane waves:     316
 k-point ** :  -0.0625 0.4375 0.0000  plane waves:     315
 k-point ** :   0.0000 0.5000 0.0000  plane waves:     302
 k-point ** :   0.0625 0.5000 0.0000  plane waves:     315
 k-point ** :   0.1250 0.5000 0.0000  plane waves:     312
 k-point ** :   0.1875 0.5000 0.0000  plane waves:     312
 k-point ** :   0.2500 0.5000 0.0000  plane waves:     311
 k-point ** :   0.3125 0.5000 0.0000  plane waves:     311
 k-point ** :   0.3750 0.5000 0.0000  plane waves:     316
 k-point ** :   0.4375 0.5000 0.0000  plane waves:     308
 k-point ** :   0.5000 0.5000 0.0000  plane waves:     302
 k-point ** :   0.0000 0.0000 0.0625  plane waves:     322
 k-point ** :   0.0625 0.0000 0.0625  plane waves:     327
 k-point ** :   0.1250 0.0000 0.0625  plane waves:     318
 k-point ** :   0.1875 0.0000 0.0625  plane waves:     315
 k-point ** :   0.2500 0.0000 0.0625  plane waves:     313
 k-point ** :   0.3125 0.0000 0.0625  plane waves:     309
 k-point ** :   0.3750 0.0000 0.0625  plane waves:     309
 k-point ** :   0.4375 0.0000 0.0625  plane waves:     315
 k-point ** :   0.5000 0.0000 0.0625  plane waves:     315
 k-point ** :  -0.4375 0.0000 0.0625  plane waves:     315
 k-point ** :  -0.3750 0.0000 0.0625  plane waves:     312
 k-point ** :  -0.3125 0.0000 0.0625  plane waves:     310
 k-point ** :  -0.2500 0.0000 0.0625  plane waves:     307
 k-point ** :  -0.1875 0.0000 0.0625  plane waves:     312
 k-point ** :  -0.1250 0.0000 0.0625  plane waves:     314
 k-point ** :  -0.0625 0.0000 0.0625  plane waves:     317
 k-point ** :   0.0000 0.0625 0.0625  plane waves:     327
 k-point ** :   0.0625 0.0625 0.0625  plane waves:     322
 k-point ** :   0.1250 0.0625 0.0625  plane waves:     317
 k-point ** :   0.1875 0.0625 0.0625  plane waves:     314
 k-point ** :   0.2500 0.0625 0.0625  plane waves:     312
 k-point ** :   0.3125 0.0625 0.0625  plane waves:     307
 k-point ** :   0.3750 0.0625 0.0625  plane waves:     310
 k-point ** :   0.4375 0.0625 0.0625  plane waves:     312
 k-point ** :   0.5000 0.0625 0.0625  plane waves:     315
 k-point ** :  -0.4375 0.0625 0.0625  plane waves:     315
 k-point ** :  -0.3750 0.0625 0.0625  plane waves:     315
 k-point ** :  -0.3125 0.0625 0.0625  plane waves:     309
 k-point ** :  -0.2500 0.0625 0.0625  plane waves:     309
[...]
 k-point ** :  -0.3750 0.4375 0.5000  plane waves:     309
 k-point ** :  -0.3125 0.4375 0.5000  plane waves:     312
 k-point ** :  -0.2500 0.4375 0.5000  plane waves:     312
 k-point ** :  -0.1875 0.4375 0.5000  plane waves:     312
 k-point ** :  -0.1250 0.4375 0.5000  plane waves:     315
 k-point ** :  -0.0625 0.4375 0.5000  plane waves:     312
 k-point ** :   0.0000 0.5000 0.5000  plane waves:     302
 k-point ** :   0.0625 0.5000 0.5000  plane waves:     308
 k-point ** :   0.1250 0.5000 0.5000  plane waves:     316
 k-point ** :   0.1875 0.5000 0.5000  plane waves:     311
 k-point ** :   0.2500 0.5000 0.5000  plane waves:     311
 k-point ** :   0.3125 0.5000 0.5000  plane waves:     312
 k-point ** :   0.3750 0.5000 0.5000  plane waves:     312
 k-point ** :   0.4375 0.5000 0.5000  plane waves:     315
 k-point ** :   0.5000 0.5000 0.5000  plane waves:     302

 maximum and minimum number of plane-waves per node :       331      302

 maximum number of plane-waves:       331
 maximum index in each direction:
   IXMAX=    5   IYMAX=    5   IZMAX=    4
   IXMIN=   -5   IYMIN=   -5   IZMIN=   -5

 serial   3D FFT for wavefunctions
 parallel 3D FFT for charge:
    minimum data exchange during FFTs selected (reduces bandwidth)

 initial charge density was supplied:
 number of electron       8.0000000 magnetization       2.5079631
 keeping initial charge density in first step

 Maximum index for non-local projection operator        10149
 Maximum index for augmentation-charges        24103 (set IRDMAX)

 First call to EWALD:  gamma=   0.784
 Maximum number of real-space cells 3x 3x 3
 Maximum number of reciprocal cells 3x 3x 3

--------------------------------------- Iteration      1(   1)  ---------------------------------------

 BZINTS: Fermi energy: 11.761541;  8.000000 electrons
         Band energy:  54.845423;  BLOECHL correction: -0.465846

 eigenvalue-minimisations  : 85576
 total energy-change (2. order) : 0.1890148E+02  (-0.4118192E+03)
 number of electron       8.0000000 magnetization       2.5079631
 augmentation part        8.0000000 magnetization       2.5079631

 Free energy of the ion-electron system (eV)
  alpha Z        PSCENC =        59.70199669
  Ewald energy   TEWEN  =      -588.32920558
  -Hartree energ DENC   =       -96.88416194
  -exchange      EXHF   =         0.00000000
  -V(xc)+E(xc)   XCENC  =         4.58134774
  PAW double counting   =       722.44385480     -731.77045907
  entropy T*S    EENTRO =         0.00000000
  eigenvalues    EBANDS =        54.84542268
  atomic energy  EATOM  =       594.31268070
  Solvation  Ediel_sol  =         0.00000000
  free energy    TOTEN  =        18.90147602 eV

  energy without entropy =       18.90147602  energy(sigma->0) =       18.90147602

[...]

 eigenvalue-minimisations  : 83042
 total energy-change (2. order) :-0.2642990E+02  (-0.2463128E+02)
 number of electron       8.0000000 magnetization       2.5079631
 augmentation part        8.0000000 magnetization       2.5079631

[...]

--------------------------------------- Iteration      1(   6)  ---------------------------------------

[...]

 eigenvalue-minimisations  : 71213
 total energy-change (2. order) :-0.2489315E-06  (-0.2489014E-06)
 number of electron       8.0000000 magnetization       2.5079631
 augmentation part        8.0000000 magnetization       2.5079631

 Free energy of the ion-electron system (eV)
  alpha Z        PSCENC =        59.70199669
  Ewald energy   TEWEN  =      -588.32920558
  -Hartree energ DENC   =       -96.88416194
  -exchange      EXHF   =         0.00000000
  -V(xc)+E(xc)   XCENC  =         4.58134774
  PAW double counting   =       722.44385480     -731.77045907
  entropy T*S    EENTRO =         0.00000000
  eigenvalues    EBANDS =        27.87047741
  atomic energy  EATOM  =       594.31268070
  Solvation  Ediel_sol  =         0.00000000
  free energy    TOTEN  =        -8.07346925 eV

  energy without entropy =       -8.07346925  energy(sigma->0) =       -8.07346925

 average (electrostatic) potential at core
  the test charge radii are     1.0103
  (the norm of the test charge is              1.0000)
       1 -43.3654

 E-fermi :   5.8027     XC(G=0): -12.9950     alpha+bet :-13.3896

 spin component 1

 k-point     1 :       0.0000    0.0000    0.0000
  band No.  band energies     occupation
      1      -2.7186      1.00000
      2       3.3433      1.00000
      3       3.3434      1.00000
      4       3.3434      1.00000
      5       4.4924      1.00000
      6       4.4950      1.00000
      7      27.9568      0.00000
      8      32.2583      0.00000
      9      32.2586      0.00000
     10      32.2599      0.00000

[...]

 spin component 2

[...]

 k-point  2052 :       0.5000    0.5000    0.5000
  band No.  band energies     occupation
      1       2.2073      1.00000
      2       5.6920      1.00000
      3       5.6944      1.00000
      4       5.8266      0.64414
      5       8.1867      0.00000
      6       8.1889      0.00000
      7      13.8372      0.00000
      8      26.2124      0.00000
      9      30.6843      0.00000
     10      30.6873      0.00000

 soft charge-density along one line, spin component           1
         0         1         2         3         4         5         6         7         8         9
 total charge-density along one line

 soft charge-density along one line, spin component           2
         0         1         2         3         4         5         6         7         8         9
 total charge-density along one line

------------------------ aborting loop because EDIFF is reached ----------------------------------------

 total charge

# of ion       s       p       d       tot
    1        0.487   0.529   6.215   7.232

 magnetization (x)

[...]

  FORCE on cell =-STRESS in cart. coord.  units (eV):
  Direction    XX          YY          ZZ          XY          YZ          ZX
  Alpha Z    59.70200    59.70200    59.70200
  Ewald    -196.10974  -196.10974  -196.10974    -0.00000     0.00000    -0.00000
  Hartree    32.29300    32.29322    32.29313     0.00034     0.00014    -0.00047
  E(xc)     -39.91512   -39.91511   -39.91510     0.00000     0.00000     0.00002
  Local      58.46389    58.46347    58.46370    -0.00071    -0.00028     0.00105
  n-local   -25.42119   -25.42148   -25.42166    -0.00043    -0.00010     0.00038
  augment    38.89057    38.88958    38.89020    -0.00119    -0.00074     0.00174
  Kinetic    72.54931    72.54426    72.54605    -0.00615    -0.00329     0.00823
  Fock        0.00000     0.00000     0.00000     0.00000     0.00000     0.00000
  Total       0.45271     0.44619     0.44858    -0.00814    -0.00427     0.01094
  in kB      62.65496    61.75272    62.08353    -1.12611    -0.59043     1.51364

 VOLUME and BASIS-vectors are now :
  energy-cutoff  :      520.00
  volume of cell :       11.58
      direct lattice vectors                 reciprocal lattice vectors
     2.539200067  0.000000000  0.000000000     0.393824816 -0.227374864 -0.160778308
     1.269600034  2.199011764  0.000000000     0.000000000  0.454749727 -0.160778308
     1.269600034  0.733003921  2.073248173     0.000000000  0.000000000  0.482334924

  length of vectors
     2.539200067  2.539200068  2.539200068     0.482334924  0.482334924  0.482334924

 FORCES acting on ions
    electron-ion (+dipol)            ewald-force                    non-local-force                 convergence-correction
   -.591E-07 -.465E-05 -.110E-04   -.751E-15 0.529E-15 -.865E-15   -.355E-05 0.782E-05 0.164E-04   0.941E-07 0.316E-05 0.725E-05
   -.591E-07 -.465E-05 -.110E-04   -.751E-15 0.529E-15 -.865E-15   -.355E-05 0.782E-05 0.164E-04   0.941E-07 0.316E-05 0.725E-05

 POSITION                                       TOTAL-FORCE (eV/Angst)
      0.00000      0.00000      0.00000        -0.000004      0.000006      0.000013
    total drift:                               -0.000004      0.000006      0.000013

  FREE ENERGIE OF THE ION-ELECTRON SYSTEM (eV)
  free  energy   TOTEN  =        -8.07346925 eV

  energy  without entropy=       -8.07346925  energy(sigma->0) =       -8.07346925

 total charge

[...]

 magnetization (x)

# of ion       s       p       d       tot
    1       -0.019  -0.054   2.583   2.511

 BZINTS: Fermi energy:  5.802680;  8.000000 electrons
         Band energy:  27.870477;  BLOECHL correction: -0.014452