 vasp.5.4.4.18Apr17-6-g9f103f2a35 (build Dec 15 2018 21:27:11) complex

 executed on             LinuxIFC date 2022.03.06  12:53:38

 INCAR:
 POTCAR:    PAW_PBE Fe 06Sep2000
 POTCAR:    PAW_PBE O 08Apr2002
 POTCAR:    PAW_PBE H 15Jun2001

 POTCAR:    PAW_PBE Fe 06Sep2000
   VRHFIN =Fe:  d7 s1

   TITEL  = PAW_PBE Fe 06Sep2000
   POMASS =   55.847; ZVAL   =    8.000    mass and valenz
   ENMAX  =  267.882; ENMIN  =  200.911 eV

 POTCAR:    PAW_PBE O 08Apr2002
   VRHFIN =O: s2p4

   TITEL  = PAW_PBE O 08Apr2002
   POMASS =   16.000; ZVAL   =    6.000    mass and valenz
   ENMAX  =  400.000; ENMIN  =  300.000 eV

 POTCAR:    PAW_PBE H 15Jun2001
   VRHFIN =H: ultrasoft test

   TITEL  = PAW_PBE H 15Jun2001
   POMASS =    1.000; ZVAL   =    1.000    mass and valenz
   ENMAX  =  250.000; ENMIN  =  200.000 eV

 Optimization of the real space projectors (new method)

 maximal supplied QI-value         = 16.25
 optimisation between [QCUT,QGAM] = [ 11.54, 23.24] = [ 37.28,151.24] Ry
 Optimized for a Real-space Cutoff    1.53 Angstroem

   l    n(q)    QCUT    max X(q) W(low)/X(q) W(high)/X(q)  e(spline)
   2     10    11.539    80.901    0.11E-03    0.14E-03    0.21E-06
   2     10    11.539    75.754    0.11E-03    0.14E-03    0.22E-06
   0     11    11.539    58.752    0.52E-04    0.18E-04    0.33E-06
   0     11    11.539    30.679    0.44E-04    0.16E-04    0.30E-06
   1     10    11.539    17.977    0.53E-04    0.29E-04    0.13E-06
   1     10    11.539    13.559    0.44E-04    0.25E-04    0.11E-06
 Optimization of the real space projectors (new method)

[...]

   l    n(q)    QCUT    max X(q) W(low)/X(q) W(high)/X(q)  e(spline)
   0      8    11.635    20.381    0.10E-03    0.33E-03    0.24E-06
   0      8    11.635    15.268    0.11E-03    0.35E-03    0.26E-06
   1      7    11.635     5.964    0.24E-03    0.31E-03    0.30E-06
   1      7    11.635     5.382    0.22E-03    0.25E-03    0.26E-06
 Optimization of the real space projectors (new method)

 maximal supplied QI-value         = 34.20
 optimisation between [QCUT,QGAM] = [ 11.63, 23.26] = [ 37.87,151.49] Ry
 Optimized for a Real-space Cutoff    1.21 Angstroem

   l    n(q)    QCUT    max X(q) W(low)/X(q) W(high)/X(q)  e(spline)
   0      8    11.629    19.460    0.17E-03    0.34E-03    0.21E-06
   0      8    11.629    12.209    0.16E-03    0.33E-03    0.21E-06
   1      8    11.629     4.655    0.18E-03    0.16E-03    0.26E-06
  PAW_PBE Fe 06Sep2000                  :
  PAW_PBE O 08Apr2002                   :
  PAW_PBE H 15Jun2001                   :

 POSCAR: POSCAR
  positions in direct lattice
  velocities in cartesian coordinates
 exchange correlation table for  LEXCH =        8
   RHO(1)=    0.500       N(1)  =     2000
   RHO(2)=  100.500       N(2)  =     4000

 VTST: version 3.2, (02/03/18)

 CHAIN: initializing optimizer

 OPT: Using VASP Dynamics algorithm
 CHAIN: Read ICHAIN            0

 POSCAR: POSCAR
  positions in direct lattice
  velocities in cartesian coordinates

 ion  position               nearest neighbor table
   1  0.087  0.163  0.095-   5 2.48  13 2.48  17 2.48  49 2.48  31 2.48   3 2.48  29 2.87  53 2.87
                            15 2.87  19 2.87
   2  0.088  0.160  0.285-  32 2.38   3 2.44  31 2.45  50 2.47   4 2.47  14 2.48   6 2.48  18 2.50
                            20 2.82  15 2.83  54 2.84  19 2.84  16 2.87  30 2.89
   3  0.212  0.038  0.191-   2 2.44  54 2.44  15 2.48   7 2.48  51 2.48  19 2.48  53 2.48   1 2.48
                             6 2.83  50 2.85  31 2.87  55 2.87  49 2.87   5 2.87
   4  0.206  0.031  0.381-  65 1.89  16 2.42  52 2.42  54 2.47   2 2.47   8 2.54  20 2.54  50 2.77
                            56 2.86  32 2.87   6 2.95
   5  0.337  0.163  0.095-   1 2.48   9 2.48  21 2.48  53 2.48   7 2.48  19 2.48  17 2.87  57 2.87
                             3 2.87  23 2.87
   6  0.338  0.163  0.285-   7 2.44  19 2.44  20 2.46   8 2.46  10 2.48  22 2.48   2 2.48  54 2.48
                            24 2.80  23 2.83   3 2.83  58 2.86  18 2.86   4 2.95
   7  0.462  0.038  0.191-   6 2.44  58 2.44  11 2.48   3 2.48  55 2.48  23 2.48  57 2.48   5 2.48
                            10 2.84  54 2.84  19 2.87  59 2.87  53 2.87   9 2.87
   8  0.460  0.036  0.380-  65 1.87  12 2.43  56 2.44  58 2.45   6 2.46  24 2.49   4 2.54  54 2.82
                            60 2.84  20 2.86  10 2.86
   9  0.587  0.163  0.095-   5 2.48  13 2.48  25 2.48  57 2.48  11 2.48  23 2.48  21 2.87  61 2.87
                             7 2.87  27 2.87
  10  0.588  0.162  0.286-  24 2.42  12 2.44  11 2.45  23 2.46  58 2.47   6 2.48  14 2.49  26 2.49
                             7 2.84  27 2.84  28 2.85  62 2.86   8 2.86  22 2.87
  11  0.712  0.038  0.191-  62 2.44  10 2.45  15 2.48   7 2.48  59 2.48  27 2.48  61 2.48   9 2.48
                            14 2.84  58 2.84  23 2.87  63 2.87  57 2.87  13 2.87
  12  0.707  0.029  0.379-  66 1.86  60 2.39  62 2.43   8 2.43  10 2.44  16 2.54  28 2.56  58 2.74
                            64 2.85  24 2.89  14 2.92
  13  0.837  0.163  0.095-   1 2.48   9 2.48  29 2.48  61 2.48  15 2.48  27 2.48  49 2.87  25 2.87
                            11 2.87  31 2.87
  14  0.838  0.163  0.285-  15 2.44  27 2.44  28 2.45  16 2.47   2 2.48  30 2.48  10 2.49  62 2.49
                            32 2.78  31 2.83  11 2.84  50 2.87  26 2.87  12 2.92
  15  0.962  0.038  0.191-  14 2.44  50 2.46   3 2.48  11 2.48  31 2.48  63 2.48  13 2.48  49 2.48
                             2 2.83  62 2.84  27 2.87  51 2.87   1 2.87  61 2.87
  16  0.961  0.033  0.380-  66 1.86   4 2.42  50 2.43  64 2.44  14 2.47  12 2.54  32 2.54  62 2.82
                            52 2.82  28 2.83   2 2.87
  17  0.087  0.413  0.095-  21 2.48  29 2.48   1 2.48  33 2.48  19 2.48  47 2.48  45 2.87   5 2.87
                            31 2.87  35 2.87
  18  0.088  0.412  0.285-  48 2.42  19 2.44  20 2.45  47 2.46  22 2.47  34 2.48  30 2.49   2 2.50
                            36 2.74  32 2.76  35 2.84  31 2.84   6 2.86  46 2.88
  19  0.212  0.288  0.191-   6 2.44  18 2.44  23 2.48  31 2.48   3 2.48  35 2.48   5 2.48  17 2.48
                            22 2.84   2 2.84   7 2.87  47 2.87  21 2.87   1 2.87
  20  0.211  0.285  0.380-  65 1.87  36 2.43  32 2.44  18 2.45   6 2.46  24 2.48   4 2.54   2 2.82
                            48 2.85   8 2.86  22 2.86
  21  0.337  0.413  0.095-  17 2.48  25 2.48   5 2.48  37 2.48  35 2.48  23 2.48   9 2.87  33 2.87
                            19 2.87  39 2.87
  22  0.337  0.413  0.286-  24 2.42  36 2.44  35 2.45  23 2.46  18 2.47   6 2.48  38 2.49  26 2.49
                            19 2.84  39 2.84  40 2.85  34 2.86  20 2.86  10 2.87
  23  0.462  0.288  0.191-  22 2.46  10 2.46  19 2.48  27 2.48   7 2.48  39 2.48  21 2.48   9 2.48
                             6 2.83  26 2.87  35 2.87  11 2.87   5 2.87  25 2.87
  24  0.460  0.286  0.378-  69 2.03  10 2.42  22 2.42  20 2.48   8 2.49  40 2.54  28 2.54   6 2.80
                            26 2.83  12 2.89  36 2.89
  25  0.587  0.413  0.095-  21 2.48  29 2.48   9 2.48  41 2.48  39 2.48  27 2.48  13 2.87  37 2.87
                            23 2.87  43 2.87
  26  0.588  0.413  0.287-  42 2.47  30 2.47  27 2.47  39 2.47  40 2.48  28 2.48  22 2.49  10 2.49
                            44 2.78  24 2.83  43 2.85  23 2.87  14 2.87  38 2.87
  27  0.712  0.288  0.191-  14 2.44  26 2.47  23 2.48  31 2.48  11 2.48  43 2.48  25 2.48  13 2.48
                            30 2.83  10 2.84  39 2.87  15 2.87   9 2.87  29 2.87
  28  0.717  0.283  0.381-  66 1.90  69 2.05  14 2.45  32 2.47  26 2.48  44 2.49  24 2.54  12 2.56
                            16 2.83  10 2.85  30 2.86  40 2.97
  29  0.837  0.413  0.095-  17 2.48  25 2.48  13 2.48  45 2.48  43 2.48  31 2.48   1 2.87  41 2.87
                            27 2.87  47 2.87
  30  0.837  0.413  0.285-  32 2.39  43 2.44  31 2.45  44 2.45  26 2.47  46 2.48  14 2.48  18 2.49
                            48 2.81  27 2.83  47 2.83  42 2.85  28 2.86   2 2.89
  31  0.962  0.288  0.191-  30 2.45   2 2.45  27 2.48  19 2.48  15 2.48  47 2.48   1 2.48  29 2.48
                            14 2.83  18 2.84  43 2.87   3 2.87  17 2.87  13 2.87
  32  0.964  0.288  0.375-   2 2.38  30 2.39  48 2.44  20 2.44  28 2.47  16 2.54  18 2.76  14 2.78
                             4 2.87  44 2.88
  33  0.087  0.663  0.095-  37 2.48  45 2.48  17 2.48  49 2.48  35 2.48  63 2.48  61 2.87  21 2.87
                            47 2.87  51 2.87
  34  0.088  0.662  0.285-  64 2.40  36 2.43  35 2.44  63 2.45  18 2.48  46 2.48  38 2.49  50 2.49
                            52 2.82  47 2.83  51 2.84  48 2.85  22 2.86  62 2.88
  35  0.212  0.538  0.191-  34 2.44  22 2.45  39 2.48  47 2.48  19 2.48  51 2.48  21 2.48  33 2.48
                            38 2.84  18 2.84  23 2.87  63 2.87  37 2.87  17 2.87
  36  0.204  0.532  0.379-  68 1.86  48 2.39  34 2.43  20 2.43  22 2.44  52 2.54  40 2.56  18 2.74
                            64 2.85  24 2.89  38 2.92
  37  0.337  0.663  0.095-  33 2.48  41 2.48  21 2.48  53 2.48  51 2.48  39 2.48  25 2.87  49 2.87
                            35 2.87  55 2.87
  38  0.338  0.663  0.285-  51 2.44  39 2.44  40 2.45  52 2.47  54 2.48  42 2.48  22 2.49  34 2.49
                            56 2.78  55 2.83  35 2.84  50 2.87  26 2.87  36 2.92
  39  0.462  0.538  0.191-  38 2.44  26 2.47  35 2.48  43 2.48  23 2.48  55 2.48  37 2.48  25 2.48
                            42 2.83  22 2.84  51 2.87  27 2.87  21 2.87  41 2.87
  40  0.458  0.542  0.381-  68 1.90  69 2.05  38 2.45  56 2.47  26 2.48  44 2.49  24 2.54  36 2.56
                            52 2.83  22 2.85  42 2.86  28 2.97
  41  0.587  0.663  0.095-  37 2.48  45 2.48  25 2.48  57 2.48  55 2.48  43 2.48  29 2.87  53 2.87
                            39 2.87  59 2.87
  42  0.588  0.662  0.285-  56 2.39  43 2.44  55 2.45  44 2.45  26 2.47  46 2.48  38 2.48  58 2.49
                            60 2.81  39 2.83  59 2.83  30 2.85  40 2.86  54 2.89
  43  0.712  0.538  0.191-  42 2.44  30 2.44  39 2.48  47 2.48  27 2.48  59 2.48  41 2.48  29 2.48
                            46 2.82  26 2.85  55 2.87  31 2.87  25 2.87  45 2.87
  44  0.710  0.536  0.379-  67 1.94  42 2.45  30 2.45  40 2.49  28 2.49  60 2.50  48 2.50  26 2.78
                            46 2.87  56 2.87  32 2.88
  45  0.837  0.663  0.095-  33 2.48  41 2.48  29 2.48  61 2.48  59 2.48  47 2.48  17 2.87  57 2.87
                            43 2.87  63 2.87
  46  0.837  0.663  0.284-  47 2.43  59 2.43  48 2.47  60 2.47  30 2.48  42 2.48  34 2.48  62 2.48
                            64 2.80  43 2.82  63 2.82  44 2.87  58 2.88  18 2.88
  47  0.962  0.538  0.191-  46 2.43  18 2.46  43 2.48  35 2.48  31 2.48  63 2.48  17 2.48  45 2.48
                            34 2.83  30 2.83  59 2.87  19 2.87  33 2.87  29 2.87
  48  0.963  0.533  0.379-  67 1.86  36 2.39  18 2.42  32 2.44  46 2.47  44 2.50  64 2.52  30 2.81
                            20 2.85  34 2.85  60 2.92
  49  0.087  0.913  0.095-  53 2.48  61 2.48   1 2.48  33 2.48  15 2.48  51 2.48  37 2.87  13 2.87
                             3 2.87  63 2.87
  50  0.087  0.912  0.286-  16 2.43  52 2.43  51 2.46  15 2.46  54 2.47   2 2.47  34 2.49  62 2.49
[...]
   0.127E+01 -.222E+00 0.749E+03   -.135E+01 0.224E+00 -.749E+03   0.357E-01 0.616E-01 -.408E+00   -.651E-04 0.286E-04 0.131E-02
   0.536E+02 -.925E+02 -.168E+04   -.540E+02 0.945E+02 0.167E+04   0.415E+00 -.196E+01 0.273E+01   -.689E-04 -.280E-04 0.537E-03
   -.119E+00 0.120E-01 0.192E+04   0.615E-01 -.303E-01 -.192E+04   0.549E-01 0.298E-01 -.340E+01   -.289E-04 -.960E-05 0.462E-03
   0.449E+01 -.388E+00 -.444E+03   -.466E+01 0.276E+00 0.443E+03   0.154E+00 0.119E+00 0.542E+00   -.613E-04 0.300E-04 0.125E-02
   -.136E+01 -.855E+00 0.749E+03   0.140E+01 0.879E+00 -.749E+03   -.113E-01 -.841E-02 -.505E+00   0.145E-04 0.767E-05 0.131E-02
   0.648E+02 0.460E+02 -.162E+04   -.650E+02 -.461E+02 0.162E+04   0.184E+00 0.131E+00 0.458E+01   0.601E-04 -.464E-04 0.581E-03
   0.264E+00 0.209E+00 0.192E+04   -.192E+00 -.158E+00 -.192E+04   -.520E-01 -.369E-01 -.346E+01   -.360E-04 0.122E-04 0.464E-03
   -.251E+00 0.680E-03 -.449E+03   0.448E+00 0.138E+00 0.449E+03   -.197E+00 -.139E+00 -.117E-02   0.149E-03 -.109E-03 0.130E-02
   0.196E+01 -.925E+00 0.749E+03   -.205E+01 0.952E+00 -.749E+03   0.399E-01 0.614E-01 -.400E+00   0.263E-04 -.143E-04 0.144E-02
   -.632E+02 -.463E+02 -.160E+04   0.643E+02 0.467E+02 0.159E+04   -.113E+01 -.433E+00 0.313E+01   0.147E-03 -.958E-04 0.496E-03
   -.957E-01 0.304E+00 0.192E+04   0.425E-01 -.308E+00 -.192E+04   0.520E-01 0.141E-01 -.338E+01   0.770E-04 0.510E-04 0.486E-03
   -.642E+01 0.106E+01 -.445E+03   0.617E+01 -.100E+01 0.444E+03   0.240E+00 -.594E-01 0.613E+00   -.164E-04 -.106E-03 0.131E-02
   -.162E+01 0.826E+00 0.748E+03   0.168E+01 -.796E+00 -.748E+03   -.433E-01 -.356E-01 -.500E+00   0.242E-04 -.557E-04 0.144E-02
   -.265E+02 0.172E+01 -.170E+04   0.273E+02 -.624E+00 0.170E+04   -.778E+00 -.109E+01 0.454E+01   -.142E-03 -.178E-03 0.485E-03
   -.260E+00 -.236E+00 0.192E+04   0.209E+00 0.214E+00 -.192E+04   0.363E-01 0.266E-01 -.337E+01   -.280E-04 0.597E-04 0.382E-03
   0.175E+01 -.528E+01 -.449E+03   -.179E+01 0.507E+01 0.449E+03   0.511E-01 0.199E+00 0.631E+00   0.175E-04 -.199E-04 0.139E-02
   -.184E+00 0.322E+00 0.750E+03   0.220E+00 -.346E+00 -.750E+03   -.338E-01 -.276E-01 -.396E+00   -.129E-04 -.151E-04 0.128E-02
   0.102E+03 0.474E+02 -.166E+04   -.104E+03 -.486E+02 0.165E+04   0.165E+01 0.122E+01 0.273E+01   -.640E-04 -.479E-05 0.580E-03
   0.165E+00 -.167E+00 0.192E+04   -.126E+00 0.154E+00 -.192E+04   -.452E-01 0.673E-02 -.337E+01   -.574E-04 0.910E-04 0.433E-03
   0.299E+01 -.889E+01 -.437E+03   -.261E+01 0.885E+01 0.437E+03   -.393E+00 0.392E-01 0.725E+00   -.535E-04 0.291E-04 0.120E-02
   -.310E+00 0.222E+01 0.749E+03   0.307E+00 -.232E+01 -.749E+03   0.717E-01 0.167E-01 -.401E+00   -.111E-04 -.219E-04 0.131E-02
   -.649E+02 -.440E+02 -.160E+04   0.657E+02 0.450E+02 0.159E+04   -.789E+00 -.921E+00 0.314E+01   -.132E-05 -.778E-04 0.534E-03
   0.234E+00 -.186E+00 0.192E+04   -.256E+00 0.137E+00 -.192E+04   0.308E-01 0.442E-01 -.338E+01   0.284E-04 0.488E-04 0.458E-03
   -.127E+01 -.636E+01 -.445E+03   0.125E+01 0.611E+01 0.444E+03   0.249E-01 0.246E+00 0.613E+00   0.580E-04 -.113E-03 0.122E-02
   0.131E+01 0.960E+00 0.752E+03   -.126E+01 -.927E+00 -.752E+03   -.781E-01 -.557E-01 -.429E+00   0.597E-04 -.741E-05 0.136E-02
   0.388E+02 0.276E+02 -.166E+04   -.394E+02 -.280E+02 0.166E+04   0.545E+00 0.381E+00 0.412E+01   0.389E-04 -.190E-03 0.511E-03
   -.144E+00 -.104E+00 0.192E+04   0.172E+00 0.124E+00 -.192E+04   -.302E-01 -.214E-01 -.331E+01   0.638E-04 0.982E-04 0.430E-03
   -.456E+01 -.322E+01 -.439E+03   0.466E+01 0.330E+01 0.438E+03   -.110E+00 -.777E-01 0.112E+01   -.217E-04 -.969E-04 0.126E-02
   -.176E+01 0.200E+01 0.750E+03   0.177E+01 -.211E+01 -.750E+03   0.478E-01 0.283E-01 -.443E+00   -.347E-04 -.716E-04 0.131E-02
   -.793E+02 0.630E+02 -.167E+04   0.807E+02 -.644E+02 0.167E+04   -.141E+01 0.139E+01 0.253E+01   0.379E-04 0.103E-04 0.514E-03
   0.805E-02 -.166E-01 0.192E+04   0.518E-01 0.586E-01 -.192E+04   -.388E-01 -.275E-01 -.343E+01   -.252E-04 0.245E-05 0.421E-03
   0.547E+00 0.276E+00 -.465E+03   -.345E+00 -.133E+00 0.465E+03   -.204E+00 -.145E+00 -.597E-01   -.358E-05 0.213E-03 0.138E-02
   0.136E+01 -.188E+01 0.748E+03   -.143E+01 0.187E+01 -.748E+03   0.282E-01 0.469E-01 -.356E+00   0.838E-05 0.505E-04 0.128E-02
   0.252E+02 -.117E+03 -.168E+04   -.259E+02 0.119E+03 0.168E+04   0.675E+00 -.188E+01 0.247E+01   -.177E-03 0.133E-03 0.533E-03
   0.178E+00 -.626E-01 0.192E+04   -.188E+00 0.707E-01 -.192E+04   0.178E-01 -.719E-02 -.340E+01   -.654E-04 0.345E-04 0.394E-03
   0.196E+01 -.279E+01 -.457E+03   -.220E+01 0.294E+01 0.456E+03   0.257E+00 -.152E+00 0.647E+00   -.171E-03 0.788E-04 0.130E-02
   0.168E+00 -.181E+01 0.748E+03   -.121E+00 0.185E+01 -.748E+03   -.483E-01 -.300E-01 -.500E+00   -.216E-04 0.171E-05 0.125E-02
   -.741E+01 -.256E+02 -.170E+04   0.870E+01 0.260E+02 0.170E+04   -.129E+01 -.369E+00 0.453E+01   -.274E-04 0.933E-04 0.592E-03
   0.147E+00 -.123E+00 0.192E+04   -.128E+00 0.159E+00 -.192E+04   -.110E-01 -.151E-01 -.350E+01   0.657E-04 -.314E-04 0.417E-03
   0.445E+01 0.273E+01 -.455E+03   -.426E+01 -.256E+01 0.456E+03   -.192E+00 -.195E+00 -.180E+00   0.225E-04 0.259E-04 0.125E-02
   0.124E+01 -.234E+01 0.750E+03   -.134E+01 0.239E+01 -.750E+03   0.426E-01 0.349E-01 -.442E+00   0.849E-05 -.334E-04 0.121E-02
   0.329E+02 -.957E+02 -.167E+04   -.337E+02 0.975E+02 0.167E+04   0.838E+00 -.180E+01 0.253E+01   0.132E-03 -.256E-04 0.597E-03
   -.308E+00 -.189E+00 0.192E+04   0.269E+00 0.149E+00 -.192E+04   0.376E-01 0.252E-01 -.337E+01   0.203E-04 -.681E-04 0.391E-03
   -.438E+01 0.322E+01 -.450E+03   0.417E+01 -.319E+01 0.449E+03   0.205E+00 -.204E-01 0.631E+00   0.145E-03 0.107E-03 0.139E-02
   -.211E+01 -.156E+01 0.748E+03   0.215E+01 0.159E+01 -.748E+03   0.189E-02 0.694E-03 -.553E+00   -.475E-07 0.652E-04 0.118E-02
   -.112E+02 -.796E+01 -.171E+04   0.130E+02 0.920E+01 0.171E+04   -.171E+01 -.122E+01 0.501E+01   0.795E-04 0.146E-03 0.631E-03
   0.748E+01 0.524E+01 -.170E+04   -.617E+01 -.432E+01 0.173E+04   -.127E+01 -.894E+00 -.248E+02   -.824E-04 -.532E-04 -.876E-04
   -.383E+02 0.332E+02 -.170E+04   0.388E+02 -.320E+02 0.172E+04   -.538E+00 -.118E+01 -.252E+02   0.128E-03 0.359E-04 -.191E-03
   -.237E+02 -.167E+02 -.170E+04   0.252E+02 0.178E+02 0.173E+04   -.151E+01 -.107E+01 -.246E+02   -.760E-05 -.131E-04 -.161E-04
   0.185E+02 -.471E+02 -.170E+04   -.172E+02 0.472E+02 0.173E+04   -.131E+01 -.113E+00 -.253E+02   -.151E-03 -.523E-04 -.187E-04
   -.115E+02 -.818E+01 -.165E+04   0.148E+02 0.105E+02 0.162E+04   -.324E+01 -.235E+01 0.208E+02   0.144E-03 -.100E-03 -.126E-03
   0.375E+01 0.277E+01 -.341E+03   -.416E+01 -.307E+01 0.349E+03   0.413E+00 0.306E+00 -.820E+01   0.931E-05 -.707E-05 -.496E-04
   0.108E+02 0.771E+01 0.875E+02   -.169E-13 -.189E-12 0.352E-11   -.108E+02 -.772E+01 -.875E+02   0.374E-04 -.151E-03 0.570E-01

 POSITION                                       TOTAL-FORCE (eV/Angst)
      1.40594      1.52230      2.00000         0.003836      0.006813      0.324090
      1.40558      1.50247      6.00700         0.001210      0.009629      0.005986
      2.23340      0.35210      4.02685        -0.037515     -0.027542     -0.387088
      2.14182      0.28647      8.02430        -0.078093     -0.055051      0.021599
      3.88832      1.52230      2.00000        -0.010437     -0.007247      0.306631
      3.89013      1.52301      6.00104        -0.006261     -0.003011      0.008861
      4.71578      0.35210      4.02685         0.048675     -0.058599     -0.314664
      4.68098      0.33341      8.00008         0.059361      0.010077     -0.047227
      6.37069      1.52230      2.00000         0.009850     -0.006793      0.335384
      6.37075      1.51903      6.01932         0.004962     -0.005224      0.015252
      7.19815      0.35210      4.02685        -0.046017      0.018255     -0.363890
      7.11385      0.27015      7.98453        -0.015939     -0.012250      0.028463
      8.85307      1.52230      2.00000        -0.007550     -0.003903      0.344250
      8.85654      1.52351      6.00614         0.003495     -0.005032      0.026518
      9.68053      0.35210      4.02685         0.028190     -0.054745     -0.230046
      9.65391      0.30617      8.00380         0.030588      0.003857     -0.025792
      2.23340      3.86271      2.00000         0.022316      0.000767      0.360231
      2.24098      3.85404      6.01434        -0.023775      0.000326      0.028941
      3.06086      2.69251      4.02685        -0.037645      0.063587     -0.313888
      3.03315      2.66496      8.00036         0.023452      0.054703     -0.048998
      4.71578      3.86271      2.00000        -0.003177      0.011702      0.335320
      4.71331      3.86341      6.01883        -0.006318      0.005668      0.019758
      5.54324      2.69251      4.02685         0.024865      0.015517     -0.299867
      5.51793      2.67410      7.97118        -0.002415     -0.004296     -0.001665
      7.19815      3.86271      2.00000         0.020892      0.014510      0.338338
      7.20597      3.86794      6.04389        -0.001710     -0.001564      0.022673
      8.02561      2.69251      4.02685        -0.049511      0.088958     -0.244924
      8.05658      2.64822      8.02436         0.023020     -0.031049     -0.022422
      9.68053      3.86271      2.00000        -0.000856      0.010210      0.330739
      9.67560      3.86638      6.00438        -0.006167      0.004664      0.013748
     10.50799      2.69251      4.02685         0.009903     -0.005646     -0.389584
     10.52085      2.69286      7.90106        -0.007700      0.006200     -0.013131
      3.06086      6.20311      2.00000        -0.014470      0.004332      0.315113
      3.05858      6.19345      6.00453         0.006583     -0.008424      0.023362
      3.88832      5.03291      4.02685         0.002738     -0.050545     -0.365212
      3.78331      4.98028      7.98393        -0.029644     -0.020792      0.019565
      5.54324      6.20311      2.00000        -0.006286     -0.005719      0.344076
      5.54551      6.20544      6.00584        -0.004574      0.005800      0.028404
      6.37069      5.03291      4.02685         0.068530     -0.078018     -0.246204
      6.33862      5.07570      8.02429        -0.016000      0.034113     -0.021275
      8.02561      6.20311      2.00000         0.009577     -0.004241      0.330792
      8.02714      6.19677      6.00453         0.004200     -0.006541      0.011559
      8.85307      5.03291      4.02685        -0.031230     -0.022459     -0.366270
      8.82436      5.01325      7.99420        -0.060511     -0.046469      0.013810
     10.50799      6.20311      2.00000        -0.001893     -0.001502      0.285667
     10.50726      6.20237      5.99084        -0.001473      0.000491      0.013548
     11.33544      5.03291      4.02685         0.059098     -0.082016     -0.326218
     11.32435      4.99133      7.98088         0.012192     -0.009682     -0.026382
      3.88832      8.54352      2.00000         0.021098      0.014599      0.331735
      3.88540      8.54114      6.02207        -0.002608     -0.002168      0.003045
      4.71578      7.37332      4.02685        -0.041815      0.043969     -0.231142
      4.66389      7.36201      8.00406         0.010279      0.037409     -0.030909
      6.37069      8.54352      2.00000         0.007785      0.001159      0.323921
      6.35200      8.54903      6.00681         0.008096      0.000203      0.007248
      7.19815      7.37332      4.02685        -0.001161      0.009417     -0.390494
      7.20151      7.38422      7.90147         0.009858     -0.008254     -0.014970
      8.85307      8.54352      2.00000         0.008423      0.020609      0.360350
      8.84732      8.55253      6.01438        -0.005732     -0.017840      0.027053
      9.68053      7.37332      4.02685        -0.057253      0.081687     -0.326542
      9.63713      7.37672      7.98065        -0.003034      0.012748     -0.024310
     11.33544      8.54352      2.00000        -0.000750     -0.015350      0.315538
     11.32573      8.54440      6.00479        -0.006203      0.009116      0.020203
     12.16290      7.37332      4.02685         0.041540      0.029053     -0.367817
     12.15481      7.36766      7.92649         0.029599      0.020504     -0.022800
      3.41337      1.18538      9.08713         0.044149      0.032183      0.005431
      8.36798      1.10201      9.08495        -0.035944      0.022691     -0.064075
     10.14790      5.94865      9.06451        -0.028170     -0.019178     -0.019255
      4.98336      5.88362      9.08445         0.015570     -0.036192     -0.052445
      6.75642      3.54957      9.32146         0.011267      0.007471     -0.027843
      6.70561      3.51209     10.29413         0.004639      0.004348     -0.019853
    total drift:                               -0.004810     -0.011558     -0.008903

  FREE ENERGIE OF THE ION-ELECTRON SYSTEM (eV)
  free  energy   TOTEN  =      -557.11277146 eV

  energy  without entropy=     -557.11277146  energy(sigma->0) =     -557.11277146

 stress matrix after NEB project (eV)
    -39.92646      2.70925     -0.14336
      2.70925    -41.83384     -0.06907
     -0.14336     -0.06907    -12.30399
  FORCES: max atom, RMS     0.097957    0.030749
  FORCE total and by dimension    0.257268    0.078093
  Stress total and by dimension   59.247884   41.833844
 writing wavefunctions

 total charge

[...]

 magnetization (x)

# of ion       s       p       d       tot
    1       -0.006  -0.014   2.670   2.651
    2       -0.016  -0.053   2.432   2.364
    3       -0.015  -0.055   2.471   2.401
    4       -0.004  -0.019   2.247   2.224
    5       -0.003  -0.015   2.691   2.673
    6       -0.017  -0.057   2.505   2.431
    7       -0.016  -0.059   2.431   2.356
    8       -0.001  -0.011   2.299   2.287
    9       -0.005  -0.014   2.678   2.658
   10       -0.013  -0.053   2.470   2.404
   11       -0.015  -0.056   2.493   2.421
   12       -0.006  -0.022   2.102   2.074
   13       -0.005  -0.016   2.694   2.673
   14       -0.015  -0.055   2.430   2.360
   15       -0.016  -0.060   2.420   2.344
   16        0.001  -0.010   2.244   2.235
   17       -0.005  -0.014   2.665   2.645
   18       -0.010  -0.056   2.305   2.239
   19       -0.016  -0.059   2.431   2.356
   20       -0.001  -0.011   2.300   2.288
   21       -0.005  -0.014   2.678   2.658
   22       -0.013  -0.053   2.469   2.403
   23       -0.015  -0.057   2.463   2.391
   24       -0.007  -0.007   2.857   2.843
   25       -0.005  -0.014   2.666   2.646
   26       -0.010  -0.056   2.376   2.310
   27       -0.017  -0.059   2.450   2.374
   28       -0.004  -0.010   2.204   2.190
   29       -0.005  -0.014   2.681   2.661
   30       -0.015  -0.053   2.415   2.347
   31       -0.015  -0.056   2.468   2.397
   32       -0.005  -0.013   2.753   2.736
   33       -0.005  -0.013   2.681   2.664
   34       -0.015  -0.053   2.431   2.362
   35       -0.015  -0.056   2.492   2.421
   36       -0.006  -0.022   2.094   2.066
   37       -0.005  -0.016   2.694   2.673
   38       -0.015  -0.055   2.430   2.360
   39       -0.017  -0.059   2.450   2.374
   40       -0.004  -0.010   2.204   2.190
   41       -0.005  -0.014   2.681   2.661
   42       -0.015  -0.053   2.415   2.347
   43       -0.015  -0.056   2.481   2.410
   44       -0.005  -0.019   2.442   2.419
   45       -0.003  -0.014   2.697   2.681
   46       -0.016  -0.057   2.493   2.420
   47       -0.017  -0.059   2.432   2.357
   48       -0.001  -0.014   2.232   2.218
   49       -0.004  -0.014   2.686   2.668
   50       -0.010  -0.056   2.288   2.222
   51       -0.016  -0.060   2.420   2.343
   52        0.001  -0.010   2.243   2.234
   53       -0.006  -0.014   2.670   2.651
   54       -0.016  -0.053   2.432   2.363
   55       -0.015  -0.056   2.467   2.396
   56       -0.005  -0.013   2.753   2.735
   57       -0.006  -0.014   2.665   2.645
   58       -0.010  -0.056   2.304   2.239
   59       -0.017  -0.059   2.432   2.357
   60       -0.001  -0.014   2.232   2.217
   61       -0.005  -0.013   2.681   2.663
   62       -0.015  -0.053   2.431   2.363
   63       -0.015  -0.055   2.469   2.399
   64       -0.005  -0.010   2.780   2.765
   65        0.003   0.032   0.000   0.035
   66        0.002   0.001   0.000   0.003
   67        0.003   0.028   0.000   0.031
   68        0.002   0.000   0.000   0.003
   69        0.010   0.060   0.000   0.070
   70        0.006   0.001   0.000   0.007
tot         -0.580  -2.111 158.759 156.068

 BZINTS: Fermi energy: -0.492375;543.000000 electrons
         Band energy:***********;  BLOECHL correction: -0.022601