 vasp.5.4.4.18Apr17-6-g9f103f2a35 (build Dec 15 2018 21:27:54) gamma-only

 executed on             LinuxIFC date 2022.02.19  17:51:14

 INCAR:
 POTCAR:    PAW_PBE Ni 02Aug2007
 POTCAR:    PAW_PBE Fe 06Sep2000
 POTCAR:    PAW_PBE O 08Apr2002
 POTCAR:    PAW_PBE H 15Jun2001

 POTCAR:    PAW_PBE Ni 02Aug2007
   VRHFIN =Ni:

   TITEL  = PAW_PBE Ni 02Aug2007
   POMASS =   58.690; ZVAL   =   10.000    mass and valenz
   ENMAX  =  269.532; ENMIN  =  202.149 eV

 POTCAR:    PAW_PBE Fe 06Sep2000
   VRHFIN =Fe:  d7 s1

   TITEL  = PAW_PBE Fe 06Sep2000
   POMASS =   55.847; ZVAL   =    8.000    mass and valenz
   ENMAX  =  267.882; ENMIN  =  200.911 eV

 POTCAR:    PAW_PBE O 08Apr2002
   VRHFIN =O: s2p4

   TITEL  = PAW_PBE O 08Apr2002
   POMASS =   16.000; ZVAL   =    6.000    mass and valenz
   ENMAX  =  400.000; ENMIN  =  300.000 eV

 POTCAR:    PAW_PBE H 15Jun2001
   VRHFIN =H: ultrasoft test

   TITEL  = PAW_PBE H 15Jun2001
   POMASS =    1.000; ZVAL   =    1.000    mass and valenz
   ENMAX  =  250.000; ENMIN  =  200.000 eV

 Optimization of the real space projectors (new method)

 maximal supplied QI-value         = 16.25
 optimisation between [QCUT,QGAM] = [ 11.54, 23.24] = [ 37.28,151.24] Ry
 Optimized for a Real-space Cutoff    1.45 Angstroem

   l    n(q)    QCUT    max X(q) W(low)/X(q) W(high)/X(q)  e(spline)
   2      9    11.539    60.317    0.19E-03    0.47E-04    0.16E-06
   2      9    11.539    55.921    0.19E-03    0.48E-04    0.16E-06
   0     10    11.539    51.690    0.80E-04    0.50E-04    0.24E-06
   0     10    11.539    30.015    0.73E-04    0.45E-04    0.22E-06
   1     10    11.539    18.849    0.87E-04    0.16E-03    0.71E-07
   1     10    11.539    14.624    0.73E-04    0.13E-03    0.64E-07
 Optimization of the real space projectors (new method)

[...]

   l    n(q)    QCUT    max X(q) W(low)/X(q) W(high)/X(q)  e(spline)
   0      8    11.635    20.381    0.10E-03    0.33E-03    0.24E-06
   0      8    11.635    15.268    0.11E-03    0.35E-03    0.26E-06
   1      7    11.635     5.964    0.24E-03    0.31E-03    0.30E-06
   1      7    11.635     5.382    0.22E-03    0.25E-03    0.26E-06
 Optimization of the real space projectors (new method)

 maximal supplied QI-value         = 34.20
 optimisation between [QCUT,QGAM] = [ 11.63, 23.26] = [ 37.87,151.49] Ry
 Optimized for a Real-space Cutoff    1.21 Angstroem

   l    n(q)    QCUT    max X(q) W(low)/X(q) W(high)/X(q)  e(spline)
   0      8    11.629    19.460    0.17E-03    0.34E-03    0.21E-06
   0      8    11.629    12.209    0.16E-03    0.33E-03    0.21E-06
   1      8    11.629     4.655    0.18E-03    0.16E-03    0.26E-06
  PAW_PBE Ni 02Aug2007                  :
  PAW_PBE Fe 06Sep2000                  :
  PAW_PBE O 08Apr2002                   :
  PAW_PBE H 15Jun2001                   :

 POSCAR: POSCAR
  positions in direct lattice
  velocities in cartesian coordinates
 exchange correlation table for  LEXCH =        8
   RHO(1)=    0.500       N(1)  =     2000
   RHO(2)=  100.500       N(2)  =     4000

 VTST: version 3.2, (02/03/18)

 CHAIN: initializing optimizer

 OPT: Using VASP Dynamics algorithm
 CHAIN: Read ICHAIN            0

 POSCAR: POSCAR
  positions in direct lattice
  velocities in cartesian coordinates

 ion  position               nearest neighbor table
   1  0.999  0.001  0.191-  35 2.44  59 2.48  23 2.50  32 2.50   5 2.52  40 2.52  37 2.52   2 2.53
                             4 2.53  21 2.54  34 2.54  62 2.57
   2  0.248  0.999  0.192-  59 2.45  50 2.47   6 2.48  36 2.48  37 2.50   3 2.51  28 2.52   5 2.52
                            60 2.52  21 2.53   1 2.53   8 2.56
   3  0.499  0.002  0.192-  39 2.45  36 2.49  60 2.50  30 2.50  34 2.51   2 2.51   8 2.52  11 2.52
                             7 2.53  61 2.53  50 2.54  51 2.54
   4  0.998  0.251  0.192-  35 2.46  43 2.49  42 2.49  19 2.50  34 2.50  13 2.50   7 2.53   1 2.53
                            40 2.53  10 2.53   5 2.55  46 2.55
   5  0.249  0.249  0.191-  45 2.48  36 2.48  35 2.49  37 2.50  46 2.50   6 2.51   1 2.52  42 2.52
                             2 2.52  16 2.54   4 2.55  44 2.55
   6  0.333  0.164  0.287-  38 2.44  36 2.46  17 2.46   2 2.48   9 2.48   5 2.51  45 2.52  60 2.53
                            59 2.53  15 2.55  39 2.55  35 2.57
   7  0.749  0.253  0.193-  39 2.42  18 2.46  14 2.49  48 2.49  13 2.51  34 2.51   4 2.53   3 2.53
                            10 2.53  11 2.54  36 2.55  19 2.55
   8  0.418  0.084  0.094-  37 2.49  36 2.51  16 2.51   3 2.52  11 2.52  30 2.53  28 2.53  48 2.56
                             2 2.56
   9  0.418  0.085  0.382-  68 1.84  38 2.42  17 2.46   6 2.48  60 2.50  12 2.52  49 2.52  29 2.53
                            39 2.53  31 2.56
  10  0.832  0.165  0.289-  12 2.45  41 2.45  39 2.48  34 2.48  20 2.48  43 2.50  35 2.50  62 2.53
                             7 2.53   4 2.53  18 2.54  61 2.58
  11  0.668  0.085  0.096-  34 2.51  40 2.51  48 2.51   8 2.52   3 2.52  19 2.53  30 2.54  63 2.54
                             7 2.54
  12  0.666  0.085  0.383-  68 1.85  10 2.45  20 2.49  41 2.49  39 2.50   9 2.52  49 2.53  64 2.54
                            31 2.56  61 2.58
  13  0.999  0.499  0.193-  43 2.45  22 2.47  18 2.49  53 2.50   4 2.50  42 2.51   7 2.51  19 2.52
                            50 2.52  21 2.53  14 2.53  26 2.55
  14  0.748  0.499  0.192-  15 2.47  44 2.48  18 2.49   7 2.49  48 2.49  56 2.50  57 2.52  26 2.52
                            21 2.52  23 2.53  13 2.53  36 2.57
  15  0.584  0.419  0.287-  49 2.44  56 2.45  14 2.47  44 2.48  17 2.48  45 2.49  18 2.50  36 2.52
                             6 2.55  55 2.57  39 2.57  58 2.70
  16  0.420  0.333  0.094-  36 2.51   8 2.51  37 2.52  57 2.52  44 2.52  46 2.53  24 2.54  48 2.54
                             5 2.54
  17  0.416  0.329  0.381-  66 1.84  38 2.43   6 2.46   9 2.46  15 2.48  45 2.50  49 2.50  47 2.55
                            25 2.58  58 2.60
  18  0.830  0.416  0.287-  49 2.41   7 2.46  14 2.49  56 2.49  43 2.49  13 2.49  39 2.49  15 2.50
                            27 2.52  22 2.53  20 2.53  10 2.54
  19  0.919  0.335  0.096-  48 2.49   4 2.50  40 2.51  53 2.51  13 2.52  11 2.53  26 2.54  46 2.54
                             7 2.55
  20  0.913  0.331  0.384-  67 1.87  41 2.47  10 2.48  12 2.49  43 2.50  49 2.52  18 2.53  47 2.54
                            27 2.58  54 2.60
  21  0.998  0.749  0.193-  59 2.44  50 2.48  23 2.48  22 2.48  32 2.50  26 2.52  14 2.52   2 2.53
                            13 2.53  56 2.53   1 2.54  28 2.55
  22  0.081  0.665  0.287-  29 2.43  50 2.45  13 2.47  21 2.48  43 2.49  54 2.52  59 2.53  18 2.53
                            60 2.54  56 2.55  27 2.55  52 2.62
  23  0.753  0.752  0.192-  62 2.45  21 2.48  55 2.49  63 2.49   1 2.50  32 2.51  57 2.52  56 2.52
                            14 2.53  44 2.54  51 2.57  34 2.58
  24  0.417  0.584  0.096-  46 2.49  44 2.50  51 2.51  57 2.52  30 2.52  63 2.53  16 2.54  42 2.56
                            53 2.57
  25  0.410  0.581  0.382-  66 1.88  52 2.45  54 2.47  31 2.50  47 2.50  45 2.51  55 2.55  58 2.56
                            64 2.56  17 2.58
  26  0.916  0.585  0.095-  48 2.48  32 2.48  57 2.50  53 2.51  21 2.52  14 2.52  28 2.53  19 2.54
                            13 2.55
  27  0.909  0.584  0.384-  67 1.89  56 2.44  58 2.48  49 2.48  33 2.49  18 2.52  22 2.55  29 2.58
                            20 2.58  54 2.61
  28  0.167  0.835  0.095-  32 2.48  37 2.49  53 2.50   2 2.52  50 2.53   8 2.53  26 2.53  30 2.54
                            21 2.55
  29  0.167  0.836  0.377-  60 2.40  22 2.43  59 2.44  38 2.47  33 2.50  54 2.51   9 2.53  31 2.53
                            27 2.58
  30  0.417  0.833  0.097-  51 2.49   3 2.50  53 2.52  24 2.52   8 2.53  11 2.54  28 2.54  63 2.54
                            50 2.55
  31  0.414  0.830  0.385-  68 1.86  54 2.45  25 2.50  60 2.50  52 2.52  64 2.53  29 2.53   9 2.56
                            61 2.56  12 2.56
  32  0.920  0.833  0.095-  28 2.48  26 2.48   1 2.50  21 2.50  23 2.51  57 2.53  37 2.54  63 2.54
                            40 2.57
  33  0.919  0.835  0.380-  65 1.94  56 2.46  59 2.47  62 2.49  27 2.49  29 2.50  58 2.52  64 2.55
                            41 2.56  38 2.58
  34  0.749  0.005  0.193-  61 2.46  62 2.47  10 2.48   4 2.50  11 2.51   7 2.51   3 2.51  63 2.54
                             1 2.54  51 2.55  40 2.57  23 2.58
  35  0.077  0.160  0.285-   1 2.44   4 2.46  47 2.48   5 2.49  59 2.50  10 2.50  41 2.55  62 2.55
                             6 2.57  38 2.58  43 2.58  45 2.60
  36  0.493  0.245  0.192-   6 2.46   5 2.48   2 2.48   3 2.49  39 2.50  16 2.51   8 2.51  44 2.52
                            15 2.52   7 2.55  14 2.57  48 2.57
  37  0.171  0.083  0.095-  28 2.49   8 2.49   2 2.50   5 2.50  16 2.52   1 2.52  32 2.54  46 2.57
                            40 2.58
  38  0.178  0.086  0.382-  65 1.83   9 2.42  17 2.43   6 2.44  29 2.47  47 2.55  59 2.56  33 2.58
                            35 2.58  41 2.67
  39  0.586  0.166  0.286-   7 2.42   3 2.45  49 2.47  10 2.48  18 2.49  12 2.50  36 2.50   9 2.53
                            60 2.54   6 2.55  15 2.57  61 2.59
  40  0.917  0.086  0.094-  19 2.51  11 2.51   1 2.52  63 2.53   4 2.53  46 2.55  34 2.57  32 2.57
                            37 2.58
  41  0.914  0.086  0.384-  65 1.85  10 2.45  20 2.47  12 2.49  47 2.51  64 2.53  35 2.55  33 2.56
                            62 2.58  38 2.67
  42  0.246  0.497  0.194-  45 2.46  52 2.48  43 2.49   4 2.49  13 2.51  46 2.51   5 2.52  53 2.54
                            51 2.55  24 2.56  44 2.58  50 2.59
  43  0.076  0.416  0.288-  47 2.44  13 2.45  42 2.49  18 2.49  22 2.49   4 2.49  10 2.50  20 2.50
                            54 2.55  35 2.58  45 2.62  52 2.64
  44  0.503  0.500  0.191-  15 2.48  14 2.48  45 2.48  57 2.49  24 2.50  55 2.52  36 2.52  16 2.52
                            23 2.54   5 2.55  51 2.55  42 2.58
  45  0.336  0.415  0.285-  42 2.46  47 2.47   5 2.48  44 2.48  15 2.49  17 2.50  25 2.51   6 2.52
                            52 2.54  55 2.55  35 2.60  43 2.62
  46  0.171  0.337  0.096-  24 2.49   5 2.50  42 2.51  16 2.53  19 2.54   4 2.55  53 2.55  40 2.55
                            37 2.57
  47  0.165  0.331  0.378-  43 2.44  45 2.47  35 2.48  25 2.50  41 2.51  20 2.54  38 2.55  17 2.55
                            54 2.58
  48  0.673  0.336  0.096-  26 2.48  19 2.49  14 2.49   7 2.49  11 2.51  57 2.53  16 2.54   8 2.56
                            36 2.57
  49  0.667  0.335  0.378-  18 2.41  15 2.44  39 2.47  27 2.48  17 2.50  20 2.52   9 2.52  12 2.53
                            58 2.59
  50  0.245  0.753  0.193-  22 2.45  60 2.46   2 2.47  21 2.48  53 2.51  52 2.52  13 2.52  28 2.53
                             3 2.54  30 2.55  51 2.57  42 2.59
  51  0.498  0.750  0.193-  52 2.40  61 2.41  55 2.43  30 2.49  24 2.51  63 2.52   3 2.54  44 2.55
                            34 2.55  42 2.55  23 2.57  50 2.57
  52  0.344  0.671  0.286-  61 2.39  51 2.40  55 2.41  25 2.45  42 2.48  60 2.51  31 2.52  50 2.52
                            45 2.54  54 2.58  22 2.62  43 2.64
[...]
      0.004636  7.289749  2.057219            0           0           0
     -0.010932  7.264163  8.174126            0           0           0
      5.085834  7.283180  2.027570            0           0           0
      5.061054  7.307533  8.066484            0           0           0
      7.544053  0.039694  4.104385            0           0           0
     -0.034201  1.401721  6.050089            0           0           0
      3.741862  2.146894  4.073886            0           0           0
      1.310005  0.729449  2.026741            0           0           0
      1.362577  0.753082  8.125146            0           0           0
      5.085816  1.451034  6.068137            0           0           0
      8.827908  0.750635  2.000004            0           0           0
      8.792574  0.753546  8.160518            0           0           0
     -0.024064  4.344636  4.116840            0           0           0
     -1.327986  3.638302  6.111480            0           0           0
      2.557020  4.370247  4.058689            0           0           0
      1.291563  3.634359  6.066144            0           0           0
      0.022150  2.949898  2.029844            0           0           0
     -0.009023  2.898727  8.027415            0           0           0
      5.097187  2.938868  2.040429            0           0           0
      5.040621  2.933169  8.044084            0           0           0
     -1.327635  6.583961  4.111250            0           0           0
      1.246999  6.559320  4.093631            0           0           0
      0.082214  5.869552  6.076013            0           0           0
     -1.297178  5.128186  2.068654            0           0           0
     -1.256258  5.154756  8.162808            0           0           0
      2.496262  5.886686  6.067381            0           0           0
      5.015607  5.776218  6.138846            0           0           0
      3.792606  5.110613  2.023341            0           0           0
      3.754583  5.166073  8.332892            0           0           0
     -3.799706  8.005778  6.045823            0           0           0
     -1.235742  8.002424  6.119723            0           0           0
      1.290340  7.929138  6.072904            0           0           0
      3.698108  7.962009  6.091488            0           0           0
      2.541829  7.290825  2.053075            0           0           0
      2.514529  7.289060  8.155736            0           0           0
      0.055591  0.111234  9.228191            0           0           0
      2.406525  4.254998  9.302963            0           0           0
     -2.505300  4.406497  9.257477            0           0           0
      5.032827  0.020554  9.262662            0           0           0
      2.626473  7.305823  9.969901     0.002205   -0.000267   -0.000843
      3.647972  6.298404 10.384938    -0.150637   -0.171256    0.084123
      3.047054  5.589575 10.727334     0.595911    0.678138   -0.354846

[...]

   8 f  =    4.468051 THz    28.073592 2PiTHz  149.038134 cm-1    18.478380 meV
             X         Y         Z           dx          dy          dz
     10.087402  0.005616  4.049338            0           0           0
     -2.533390  8.735124  4.081899            0           0           0
      5.030576  0.016856  4.076606            0           0           0
      8.815571  2.192677  4.079497            0           0           0
      1.260357  2.176827  4.063429            0           0           0
      2.536018  1.438652  6.094824            0           0           0
      6.287892  2.211107  4.105703            0           0           0
      3.801807  0.734234  2.000365            0           0           0
      3.786607  0.746584  8.124669            0           0           0
      7.565766  1.446020  6.150068            0           0           0
      6.318840  0.741083  2.033840            0           0           0
      6.302022  0.743871  8.132323            0           0           0
      7.570506  4.365760  4.102834            0           0           0
      5.038171  4.362287  4.081707            0           0           0
      3.781150  3.663145  6.091553            0           0           0
      2.554616  2.916038  2.000833            0           0           0
      2.541648  2.873524  8.090388            0           0           0
      6.285116  3.637788  6.106991            0           0           0
      7.585848  2.930427  2.033712            0           0           0
      7.555692  2.891979  8.168695            0           0           0
      6.294246  6.551326  4.092632            0           0           0
     -2.536822  5.818353  6.097550            0           0           0
      3.813887  6.575459  4.072844            0           0           0
      1.268710  5.104157  2.045338            0           0           0
      1.208668  5.083828  8.110576            0           0           0
      6.294498  5.113735  2.028229            0           0           0
      6.230054  5.110127  8.153522            0           0           0
     -2.531390  7.303045  2.009908            0           0           0
     -2.537624  7.311988  8.010000            0           0           0
      0.004636  7.289749  2.057219            0           0           0
     -0.010932  7.264163  8.174126            0           0           0
      5.085834  7.283180  2.027570            0           0           0
      5.061054  7.307533  8.066484            0           0           0
      7.544053  0.039694  4.104385            0           0           0
     -0.034201  1.401721  6.050089            0           0           0
      3.741862  2.146894  4.073886            0           0           0
      1.310005  0.729449  2.026741            0           0           0
      1.362577  0.753082  8.125146            0           0           0
      5.085816  1.451034  6.068137            0           0           0
      8.827908  0.750635  2.000004            0           0           0
      8.792574  0.753546  8.160518            0           0           0
     -0.024064  4.344636  4.116840            0           0           0
     -1.327986  3.638302  6.111480            0           0           0
      2.557020  4.370247  4.058689            0           0           0
      1.291563  3.634359  6.066144            0           0           0
      0.022150  2.949898  2.029844            0           0           0
     -0.009023  2.898727  8.027415            0           0           0
      5.097187  2.938868  2.040429            0           0           0
      5.040621  2.933169  8.044084            0           0           0
     -1.327635  6.583961  4.111250            0           0           0
      1.246999  6.559320  4.093631            0           0           0
      0.082214  5.869552  6.076013            0           0           0
     -1.297178  5.128186  2.068654            0           0           0
     -1.256258  5.154756  8.162808            0           0           0
      2.496262  5.886686  6.067381            0           0           0
      5.015607  5.776218  6.138846            0           0           0
      3.792606  5.110613  2.023341            0           0           0
      3.754583  5.166073  8.332892            0           0           0
     -3.799706  8.005778  6.045823            0           0           0
     -1.235742  8.002424  6.119723            0           0           0
      1.290340  7.929138  6.072904            0           0           0
      3.698108  7.962009  6.091488            0           0           0
      2.541829  7.290825  2.053075            0           0           0
      2.514529  7.289060  8.155736            0           0           0
      0.055591  0.111234  9.228191            0           0           0
      2.406525  4.254998  9.302963            0           0           0
     -2.505300  4.406497  9.257477            0           0           0
      5.032827  0.020554  9.262662            0           0           0
      2.626473  7.305823  9.969901     0.504992    0.522891   -0.054534
      3.647972  6.298404 10.384938     0.476789    0.430273   -0.033529
      3.047054  5.589575 10.727334     0.112943    0.174675    0.108352

   9 f/i=    1.134250 THz     7.126700 2PiTHz   37.834493 cm-1     4.690881 meV
             X         Y         Z           dx          dy          dz
     10.087402  0.005616  4.049338            0           0           0
     -2.533390  8.735124  4.081899            0           0           0
      5.030576  0.016856  4.076606            0           0           0
      8.815571  2.192677  4.079497            0           0           0
      1.260357  2.176827  4.063429            0           0           0
      2.536018  1.438652  6.094824            0           0           0
      6.287892  2.211107  4.105703            0           0           0
      3.801807  0.734234  2.000365            0           0           0
      3.786607  0.746584  8.124669            0           0           0
      7.565766  1.446020  6.150068            0           0           0
      6.318840  0.741083  2.033840            0           0           0
      6.302022  0.743871  8.132323            0           0           0
      7.570506  4.365760  4.102834            0           0           0
      5.038171  4.362287  4.081707            0           0           0
      3.781150  3.663145  6.091553            0           0           0
      2.554616  2.916038  2.000833            0           0           0
      2.541648  2.873524  8.090388            0           0           0
      6.285116  3.637788  6.106991            0           0           0
      7.585848  2.930427  2.033712            0           0           0
      7.555692  2.891979  8.168695            0           0           0
      6.294246  6.551326  4.092632            0           0           0
     -2.536822  5.818353  6.097550            0           0           0
      3.813887  6.575459  4.072844            0           0           0
      1.268710  5.104157  2.045338            0           0           0
      1.208668  5.083828  8.110576            0           0           0
      6.294498  5.113735  2.028229            0           0           0
      6.230054  5.110127  8.153522            0           0           0
     -2.531390  7.303045  2.009908            0           0           0
     -2.537624  7.311988  8.010000            0           0           0
      0.004636  7.289749  2.057219            0           0           0
     -0.010932  7.264163  8.174126            0           0           0
      5.085834  7.283180  2.027570            0           0           0
      5.061054  7.307533  8.066484            0           0           0
      7.544053  0.039694  4.104385            0           0           0
     -0.034201  1.401721  6.050089            0           0           0
      3.741862  2.146894  4.073886            0           0           0
      1.310005  0.729449  2.026741            0           0           0
      1.362577  0.753082  8.125146            0           0           0
      5.085816  1.451034  6.068137            0           0           0
      8.827908  0.750635  2.000004            0           0           0
      8.792574  0.753546  8.160518            0           0           0
     -0.024064  4.344636  4.116840            0           0           0
     -1.327986  3.638302  6.111480            0           0           0
      2.557020  4.370247  4.058689            0           0           0
      1.291563  3.634359  6.066144            0           0           0
      0.022150  2.949898  2.029844            0           0           0
     -0.009023  2.898727  8.027415            0           0           0
      5.097187  2.938868  2.040429            0           0           0
      5.040621  2.933169  8.044084            0           0           0
     -1.327635  6.583961  4.111250            0           0           0
      1.246999  6.559320  4.093631            0           0           0
      0.082214  5.869552  6.076013            0           0           0
     -1.297178  5.128186  2.068654            0           0           0
     -1.256258  5.154756  8.162808            0           0           0
      2.496262  5.886686  6.067381            0           0           0
      5.015607  5.776218  6.138846            0           0           0
      3.792606  5.110613  2.023341            0           0           0
      3.754583  5.166073  8.332892            0           0           0
     -3.799706  8.005778  6.045823            0           0           0
     -1.235742  8.002424  6.119723            0           0           0
      1.290340  7.929138  6.072904            0           0           0
      3.698108  7.962009  6.091488            0           0           0
      2.541829  7.290825  2.053075            0           0           0
      2.514529  7.289060  8.155736            0           0           0
      0.055591  0.111234  9.228191            0           0           0
      2.406525  4.254998  9.302963            0           0           0
     -2.505300  4.406497  9.257477            0           0           0
      5.032827  0.020554  9.262662            0           0           0
      2.626473  7.305823  9.969901     0.306057   -0.217481   -0.070016
      3.647972  6.298404 10.384938     0.390209   -0.545639   -0.614707
      3.047054  5.589575 10.727334     0.092955   -0.102134   -0.084890

 Finite differences POTIM=  1.500000000000000E-002

 total charge

# of ion       s       p       d       tot
    1        0.500   0.499   8.303   9.302
    2        0.504   0.505   8.306   9.316
    3        0.504   0.500   8.310   9.315
    4        0.500   0.501   8.305   9.306
    5        0.506   0.510   8.293   9.310
    6        0.516   0.517   8.312   9.345
    7        0.497   0.495   8.310   9.302
    8        0.489   0.353   8.311   9.153
    9        0.509   0.519   8.320   9.349
   10        0.519   0.521   8.306   9.346
   11        0.496   0.360   8.310   9.166
   12        0.503   0.508   8.315   9.325
   13        0.495   0.492   8.317   9.305
   14        0.499   0.498   8.310   9.307
   15        0.513   0.509   8.306   9.329
   16        0.502   0.372   8.295   9.169
   17        0.507   0.524   8.318   9.350
   18        0.512   0.500   8.329   9.341
   19        0.496   0.368   8.304   9.167
   20        0.493   0.491   8.316   9.301
   21        0.491   0.482   8.324   9.298
   22        0.510   0.501   8.312   9.323
   23        0.506   0.514   8.295   9.315
   24        0.506   0.378   8.295   9.178
   25        0.500   0.507   8.311   9.318
   26        0.495   0.360   8.318   9.173
   27        0.486   0.475   8.318   9.280
   28        0.496   0.356   8.314   9.166
   29        0.501   0.373   8.365   9.239
   30        0.491   0.359   8.306   9.156
   31        0.497   0.498   8.309   9.304
   32        0.496   0.366   8.310   9.172
   33        0.487   0.477   8.318   9.281
   34        0.458   0.491   6.251   7.200
   35        0.464   0.485   6.255   7.204
   36        0.455   0.477   6.255   7.187
   37        0.449   0.344   6.246   7.038
   38        0.465   0.495   6.303   7.263
   39        0.467   0.483   6.273   7.223
   40        0.448   0.340   6.234   7.023
   41        0.451   0.477   6.288   7.215
   42        0.469   0.498   6.252   7.220
   43        0.466   0.482   6.264   7.213
   44        0.462   0.488   6.258   7.208
   45        0.471   0.485   6.273   7.230
   46        0.451   0.347   6.244   7.042
   47        0.454   0.352   6.297   7.103
   48        0.447   0.344   6.249   7.040
   49        0.445   0.349   6.304   7.099
   50        0.460   0.491   6.251   7.201
   51        0.477   0.506   6.274   7.258
   52        0.493   0.526   6.285   7.305
   53        0.453   0.347   6.246   7.046
   54        0.459   0.483   6.279   7.222
   55        0.494   0.528   6.286   7.308
   56        0.464   0.483   6.263   7.211
   57        0.454   0.353   6.248   7.055
   58        0.415   0.451   6.260   7.125
   59        0.467   0.488   6.270   7.225
   60        0.468   0.486   6.281   7.235
   61        0.500   0.529   6.301   7.330
   62        0.487   0.515   6.278   7.280
   63        0.454   0.348   6.246   7.049
   64        0.478   0.517   6.318   7.313
   65        1.585   3.334   0.000   4.919
   66        1.579   3.348   0.000   4.927
   67        1.583   3.334   0.000   4.917
   68        1.584   3.331   0.000   4.914
   69        1.604   3.240   0.000   4.844
   70        1.593   3.373   0.000   4.967
   71        0.602   0.117   0.000   0.718
tot         40.998  49.257 468.628 558.883