 vasp.5.4.4.18Apr17-6-g9f103f2a35 (build Dec 15 2018 21:27:11) complex

 executed on             LinuxIFC date 2022.02.17  21:10:11

 INCAR:
 POTCAR:    PAW_PBE Ni 02Aug2007
 POTCAR:    PAW_PBE O 08Apr2002

 POTCAR:    PAW_PBE Ni 02Aug2007
   VRHFIN =Ni:

   TITEL  = PAW_PBE Ni 02Aug2007
   POMASS =   58.690; ZVAL   =   10.000    mass and valenz
   ENMAX  =  269.532; ENMIN  =  202.149 eV

 POTCAR:    PAW_PBE O 08Apr2002
   VRHFIN =O: s2p4

   TITEL  = PAW_PBE O 08Apr2002
   POMASS =   16.000; ZVAL   =    6.000    mass and valenz
   ENMAX  =  400.000; ENMIN  =  300.000 eV

 Optimization of the real space projectors (new method)

 maximal supplied QI-value         = 16.25
 optimisation between [QCUT,QGAM] = [ 11.54, 23.24] = [ 37.28,151.24] Ry
 Optimized for a Real-space Cutoff    1.45 Angstroem

   l    n(q)    QCUT    max X(q) W(low)/X(q) W(high)/X(q)  e(spline)
   2      9    11.539    60.317    0.19E-03    0.47E-04    0.16E-06
   2      9    11.539    55.921    0.19E-03    0.48E-04    0.16E-06
   0     10    11.539    51.690    0.80E-04    0.50E-04    0.24E-06
   0     10    11.539    30.015    0.73E-04    0.45E-04    0.22E-06
   1     10    11.539    18.849    0.87E-04    0.16E-03    0.71E-07
   1     10    11.539    14.624    0.73E-04    0.13E-03    0.64E-07
 Optimization of the real space projectors (new method)

 maximal supplied QI-value         = 24.76
 optimisation between [QCUT,QGAM] = [ 11.64, 23.27] = [ 37.91,151.63] Ry
 Optimized for a Real-space Cutoff    1.14 Angstroem

   l    n(q)    QCUT    max X(q) W(low)/X(q) W(high)/X(q)  e(spline)
   0      8    11.635    20.381    0.10E-03    0.33E-03    0.24E-06
   0      8    11.635    15.268    0.11E-03    0.35E-03    0.26E-06
   1      7    11.635     5.964    0.24E-03    0.31E-03    0.30E-06
   1      7    11.635     5.382    0.22E-03    0.25E-03    0.26E-06
  PAW_PBE Ni 02Aug2007                  :
  PAW_PBE O 08Apr2002                   :

 POSCAR: POSCAR
  positions in direct lattice
  velocities in cartesian coordinates
 exchange correlation table for  LEXCH =        8
   RHO(1)=    0.500       N(1)  =     2000
   RHO(2)=  100.500       N(2)  =     4000

 VTST: version 3.2, (02/03/18)

 CHAIN: initializing optimizer

 OPT: Using VASP Dynamics algorithm
 CHAIN: Read ICHAIN            0

 POSCAR: POSCAR
  positions in direct lattice
  velocities in cartesian coordinates

 ion  position               nearest neighbor table
   1  0.113  0.226  0.095-  15 2.49  19 2.49   3 2.49   5 2.49  13 2.49  17 2.49  21 2.49  49 2.49
                            61 2.49
   2  0.111  0.228  0.383-  65 1.84  14 2.43  18 2.43  20 2.47  22 2.49  62 2.50  24 2.52   4 2.52
                             6 2.55  50 2.55
   3  0.196  0.142  0.191-  24 2.44   4 2.44   8 2.44   5 2.49  49 2.49   1 2.49   7 2.49  15 2.49
                            19 2.49  23 2.49  51 2.49  63 2.49
   4  0.030  0.059  0.285-  62 2.43   3 2.44  63 2.44  15 2.44  24 2.49   8 2.49  52 2.49  20 2.49
                            16 2.50  64 2.50   2 2.52  50 2.52
   5  0.363  0.226  0.095-   3 2.49  23 2.49   7 2.49   9 2.49   1 2.49  21 2.49  25 2.49  49 2.49
                            53 2.49
   6  0.367  0.227  0.383-  65 1.84  10 2.43  26 2.43  28 2.47  54 2.49  22 2.49   8 2.52  24 2.53
                            50 2.55   2 2.55
   7  0.446  0.142  0.191-   8 2.44  12 2.44  28 2.47   9 2.49  53 2.49   5 2.49  11 2.49   3 2.49
                            23 2.49  51 2.49  27 2.49  55 2.49
   8  0.279  0.059  0.285-  54 2.43   3 2.44  51 2.44   7 2.44  24 2.49   4 2.49  52 2.49  28 2.49
                            56 2.50  12 2.50   6 2.52  50 2.52
   9  0.613  0.226  0.095-   7 2.49  27 2.49  11 2.49  13 2.49   5 2.49  25 2.49  29 2.49  53 2.49
                            57 2.49
  10  0.611  0.227  0.383-  68 1.84   6 2.43  26 2.43  28 2.47  54 2.49  30 2.49  12 2.52  32 2.53
                            58 2.55  14 2.55
  11  0.696  0.142  0.191-  32 2.44  16 2.44  12 2.44  13 2.49  57 2.49   9 2.49  15 2.49   7 2.49
                            27 2.49  55 2.49  31 2.49  59 2.49
  12  0.530  0.059  0.285-  54 2.43  11 2.44  55 2.44   7 2.44  16 2.49  32 2.49  60 2.49  28 2.49
                            56 2.50   8 2.50  10 2.52  58 2.53
  13  0.863  0.226  0.095-  11 2.49  31 2.49  15 2.49   9 2.49   1 2.49  29 2.49  17 2.49  57 2.49
                            61 2.49
  14  0.867  0.228  0.383-  68 1.84   2 2.43  18 2.43  20 2.47  30 2.49  62 2.49  16 2.52  32 2.52
                            58 2.55  10 2.55
  15  0.946  0.142  0.191-   4 2.44  16 2.44  20 2.47   1 2.49  61 2.49  13 2.49   3 2.49  11 2.49
                            31 2.49  59 2.49  19 2.49  63 2.49
  16  0.779  0.059  0.285-  62 2.43  11 2.44  59 2.44  15 2.44  32 2.49  12 2.49  60 2.49  20 2.49
                             4 2.50  64 2.50  14 2.52  58 2.53
  17  0.113  0.476  0.095-  31 2.49  35 2.49  19 2.49  21 2.49  29 2.49  13 2.49  33 2.49   1 2.49
                            37 2.49
  18  0.111  0.472  0.383-  67 1.84   2 2.43  14 2.43  20 2.47  22 2.49  30 2.49  40 2.52  36 2.52
                            38 2.55  34 2.55
  19  0.196  0.392  0.191-  40 2.44  24 2.44  20 2.47  21 2.49   1 2.49  17 2.49  31 2.49  23 2.49
                            15 2.49  35 2.49  39 2.49   3 2.49
  20  0.030  0.309  0.286-   2 2.47  14 2.47  18 2.47  19 2.47  15 2.47  31 2.47  40 2.49  36 2.49
                            24 2.49   4 2.49  32 2.49  16 2.49
  21  0.363  0.476  0.095-  19 2.49  39 2.49  23 2.49  25 2.49  17 2.49   5 2.49  37 2.49   1 2.49
                            41 2.49
  22  0.363  0.476  0.377-  24 2.43  44 2.43  40 2.43   2 2.49  18 2.49  42 2.49  26 2.49   6 2.49
                            38 2.50
  23  0.446  0.392  0.191-  24 2.44  44 2.44  28 2.47  25 2.49   5 2.49  21 2.49  19 2.49  27 2.49
                             7 2.49  39 2.49  43 2.49   3 2.49
  24  0.279  0.309  0.285-  22 2.43   3 2.44  23 2.44  19 2.44   8 2.49   4 2.49  28 2.49  20 2.49
                            44 2.50  40 2.50   2 2.52   6 2.53
  25  0.613  0.476  0.095-  23 2.49  43 2.49  27 2.49  29 2.49  21 2.49   9 2.49  41 2.49   5 2.49
                            45 2.49
  26  0.611  0.472  0.383-  66 1.84   6 2.43  10 2.43  28 2.47  22 2.49  30 2.49  44 2.53  48 2.53
                            42 2.55  46 2.55
  27  0.696  0.392  0.191-  48 2.44  32 2.44  28 2.47  29 2.49   9 2.49  25 2.49  23 2.49  31 2.49
                            11 2.49  43 2.49  47 2.49   7 2.49
  28  0.529  0.309  0.286-   6 2.47  10 2.47  26 2.47   7 2.47  27 2.47  23 2.47  24 2.49   8 2.49
                            12 2.49  48 2.49  32 2.49  44 2.49
  29  0.863  0.476  0.095-  27 2.49  47 2.49  31 2.49  25 2.49  17 2.49  13 2.49  33 2.49  45 2.49
                             9 2.49
  30  0.863  0.476  0.377-  32 2.43  48 2.43  36 2.43  14 2.49  18 2.49  46 2.49  26 2.49  10 2.49
                            34 2.49
  31  0.946  0.392  0.191-  36 2.44  32 2.44  20 2.47  17 2.49  13 2.49  29 2.49  27 2.49  19 2.49
                            15 2.49  35 2.49  11 2.49  47 2.49
  32  0.779  0.309  0.285-  30 2.43  11 2.44  31 2.44  27 2.44  16 2.49  12 2.49  28 2.49  20 2.49
                            48 2.50  36 2.50  14 2.52  10 2.53
  33  0.113  0.726  0.095-  47 2.49  51 2.49  35 2.49  37 2.49  45 2.49  29 2.49  49 2.49  17 2.49
                            53 2.49
  34  0.111  0.728  0.383-  67 1.84  46 2.43  50 2.43  52 2.47  54 2.49  30 2.49  36 2.52  56 2.52
                            18 2.55  38 2.55
  35  0.196  0.642  0.191-  56 2.44  36 2.44  40 2.44  37 2.49  17 2.49  33 2.49  47 2.49  39 2.49
                            31 2.49  51 2.49  55 2.49  19 2.49
  36  0.030  0.559  0.285-  30 2.43  35 2.44  31 2.44  47 2.44  56 2.49  40 2.49  20 2.49  52 2.49
                            48 2.50  32 2.50  34 2.52  18 2.52
  37  0.363  0.726  0.095-  35 2.49  55 2.49  39 2.49  41 2.49  33 2.49  21 2.49  53 2.49  17 2.49
                            57 2.49
  38  0.367  0.728  0.383-  67 1.84  42 2.43  58 2.43  60 2.47  54 2.49  22 2.50  40 2.52  56 2.53
                            18 2.55  34 2.55
  39  0.446  0.642  0.191-  40 2.44  44 2.44  60 2.47  41 2.49  21 2.49  37 2.49  35 2.49  43 2.49
                            23 2.49  55 2.49  59 2.49  19 2.49
  40  0.279  0.559  0.285-  22 2.43  35 2.44  19 2.44  39 2.44  56 2.49  36 2.49  60 2.49  20 2.49
                            44 2.50  24 2.50  18 2.52  38 2.52
  41  0.613  0.726  0.095-  39 2.49  59 2.49  43 2.49  45 2.49  37 2.49  25 2.49  57 2.49  21 2.49
                            61 2.49
  42  0.611  0.727  0.383-  66 1.84  38 2.43  58 2.43  60 2.47  22 2.49  62 2.50  44 2.52  64 2.53
                            26 2.55  46 2.55
  43  0.696  0.642  0.191-  64 2.44  48 2.44  44 2.44  45 2.49  25 2.49  41 2.49  39 2.49  47 2.49
                            27 2.49  59 2.49  63 2.49  23 2.49
  44  0.530  0.559  0.285-  22 2.43  43 2.44  23 2.44  39 2.44  48 2.49  64 2.49  28 2.49  60 2.49
                            24 2.50  40 2.50  42 2.52  26 2.53
  45  0.863  0.726  0.095-  43 2.49  63 2.49  47 2.49  41 2.49  33 2.49  29 2.49  49 2.49  61 2.49
                            25 2.49
  46  0.867  0.727  0.383-  66 1.84  34 2.43  50 2.43  52 2.47  62 2.49  30 2.49  48 2.52  64 2.52
                            42 2.55  26 2.55
  47  0.946  0.642  0.191-  36 2.44  48 2.44  52 2.47  33 2.49  29 2.49  45 2.49  43 2.49  35 2.49
                            31 2.49  51 2.49  27 2.49  63 2.49
  48  0.779  0.559  0.285-  30 2.43  43 2.44  27 2.44  47 2.44  44 2.49  64 2.49  28 2.49  52 2.49
                            32 2.50  36 2.50  46 2.52  26 2.53
  49  0.113  0.976  0.095-  63 2.49   3 2.49  51 2.49  61 2.49  53 2.49   1 2.49   5 2.49  33 2.49
                            45 2.49
  50  0.111  0.972  0.383-  65 1.84  34 2.43  46 2.43  52 2.47  62 2.49  54 2.49   4 2.52   8 2.52
                             6 2.55   2 2.55
  51  0.196  0.892  0.191-   8 2.44  56 2.44  52 2.47  53 2.49  33 2.49  49 2.49  55 2.49  63 2.49
                            35 2.49  47 2.49   3 2.49   7 2.49
  52  0.029  0.809  0.286-  34 2.47  50 2.47  46 2.47  47 2.47  63 2.47  51 2.47   8 2.49  64 2.49
                             4 2.49  36 2.49  56 2.49  48 2.49
  53  0.363  0.976  0.095-  51 2.49   7 2.49  55 2.49  49 2.49  57 2.49   5 2.49   9 2.49  33 2.49
                            37 2.49
  54  0.363  0.976  0.377-  56 2.43  12 2.43   8 2.43  34 2.49  38 2.49   6 2.49  10 2.49  50 2.49
                            58 2.50
  55  0.446  0.892  0.191-  12 2.44  56 2.44  60 2.47  57 2.49  37 2.49  53 2.49  59 2.49  51 2.49
                            11 2.49  39 2.49   7 2.49  35 2.49
  56  0.279  0.809  0.285-  54 2.43  35 2.44  51 2.44  55 2.44  40 2.49  36 2.49  60 2.49  52 2.49
                             8 2.50  12 2.50  34 2.52  38 2.53
  57  0.613  0.976  0.095-  55 2.49  11 2.49  59 2.49  53 2.49  61 2.49   9 2.49  13 2.49  37 2.49
                            41 2.49
  58  0.611  0.972  0.383-  68 1.84  38 2.43  42 2.43  60 2.47  62 2.49  54 2.50  12 2.53  16 2.53
                            10 2.55  14 2.55
[...]
   0.170E+00 -.439E+01 0.118E+04   -.817E-01 0.422E+01 -.118E+04   0.312E-02 -.693E-01 -.136E+00   -.911E-01 0.254E+00 -.202E+01
   0.432E+01 -.239E+01 -.860E+03   -.406E+01 0.225E+01 0.863E+03   -.515E-01 0.271E-01 0.395E+00   -.202E+00 0.111E+00 -.350E+01
   0.998E-01 0.285E+00 0.319E+04   -.485E-02 -.242E+00 -.319E+04   -.239E-02 0.400E-01 -.145E+01   -.920E-01 -.969E-01 -.481E+00
   0.175E+00 0.112E+03 -.291E+04   -.113E+00 -.114E+03 0.291E+04   0.174E-02 0.194E+01 0.465E+00   -.656E-01 0.735E-01 -.218E+01
   0.391E+01 0.221E+01 0.118E+04   -.366E+01 -.208E+01 -.118E+04   0.606E-01 0.335E-01 -.139E+00   -.319E+00 -.166E+00 -.193E+01
   0.227E+00 0.524E-01 -.886E+03   -.141E+00 -.517E-01 0.891E+03   -.700E-02 0.330E-02 -.119E+01   -.783E-01 -.627E-02 -.344E+01
   0.680E-01 0.773E-01 0.319E+04   0.138E-01 0.131E-01 -.319E+04   0.242E-02 0.780E-03 -.125E+01   -.832E-01 -.896E-01 -.309E+00
   -.912E-01 -.255E+00 -.292E+04   0.302E-01 0.165E+00 0.292E+04   0.375E-02 -.116E-01 0.298E+01   0.565E-01 0.102E+00 -.245E+01
   -.394E+01 0.227E+01 0.118E+04   0.377E+01 -.206E+01 -.118E+04   -.598E-01 0.345E-01 -.135E+00   0.245E+00 -.246E+00 -.193E+01
   -.761E-01 0.487E+01 -.860E+03   0.654E-01 -.458E+01 0.863E+03   0.392E-02 -.706E-01 0.405E+00   0.521E-02 -.206E+00 -.347E+01
   -.101E+00 0.297E+00 0.319E+04   0.542E-02 -.239E+00 -.319E+04   -.111E-02 0.392E-01 -.145E+01   0.956E-01 -.111E+00 -.499E+00
   -.201E+00 0.113E+03 -.291E+04   0.125E+00 -.115E+03 0.291E+04   0.428E-02 0.195E+01 0.445E+00   0.723E-01 0.772E-01 -.209E+01
   0.375E+01 0.226E+01 0.118E+04   -.370E+01 -.213E+01 -.118E+04   0.588E-01 0.324E-01 -.136E+00   -.116E+00 -.172E+00 -.189E+01
   -.191E+00 -.114E+00 -.887E+03   0.118E+00 0.116E+00 0.891E+03   0.321E-02 -.315E-02 -.120E+01   0.690E-01 0.151E-02 -.332E+01
   -.675E-01 0.604E-01 0.319E+04   -.136E-01 -.300E-02 -.319E+04   0.397E-03 0.505E-04 -.125E+01   0.803E-01 -.569E-01 -.282E+00
   0.123E+00 -.194E+00 -.292E+04   -.328E-01 0.757E-01 0.292E+04   0.639E-02 -.678E-02 0.299E+01   -.971E-01 0.126E+00 -.251E+01
   -.374E+01 0.231E+01 0.118E+04   0.362E+01 -.215E+01 -.118E+04   -.616E-01 0.373E-01 -.137E+00   0.195E+00 -.209E+00 -.198E+01
   0.683E-01 0.486E+01 -.860E+03   -.720E-01 -.460E+01 0.863E+03   0.130E-02 -.610E-01 0.400E+00   0.180E-02 -.183E+00 -.348E+01
   0.202E+00 -.171E+00 0.319E+04   -.218E+00 0.118E+00 -.319E+04   0.327E-01 -.203E-01 -.143E+01   -.285E-01 0.792E-01 -.507E+00
   0.976E+02 -.561E+02 -.291E+04   -.991E+02 0.570E+02 0.291E+04   0.169E+01 -.976E+00 0.466E+00   -.126E+00 0.336E-01 -.216E+01
   0.159E-01 -.150E-01 0.118E+04   0.859E-02 -.320E-01 -.118E+04   -.272E-02 -.176E-02 -.210E+00   -.218E-01 0.474E-01 -.209E+01
   -.410E+01 -.243E+01 -.860E+03   0.393E+01 0.228E+01 0.863E+03   0.633E-01 0.324E-01 0.395E+00   0.981E-01 0.105E+00 -.341E+01
   -.842E-01 -.209E+00 0.319E+04   0.226E+00 0.129E+00 -.319E+04   -.316E-01 -.169E-01 -.144E+01   -.970E-01 0.104E+00 -.489E+00
   -.975E+02 -.562E+02 -.291E+04   0.991E+02 0.571E+02 0.291E+04   -.169E+01 -.975E+00 0.454E+00   0.264E-01 0.318E-01 -.215E+01
   0.262E-01 -.450E+01 0.118E+04   0.799E-01 0.428E+01 -.118E+04   0.174E-02 -.669E-01 -.134E+00   -.106E+00 0.305E+00 -.187E+01
   0.424E+01 -.256E+01 -.860E+03   -.395E+01 0.236E+01 0.863E+03   -.512E-01 0.323E-01 0.385E+00   -.231E+00 0.155E+00 -.340E+01
   0.164E+00 -.244E+00 0.319E+04   -.209E+00 0.122E+00 -.319E+04   0.327E-01 -.194E-01 -.143E+01   -.460E-03 0.147E+00 -.540E+00
   0.975E+02 -.565E+02 -.291E+04   -.992E+02 0.574E+02 0.291E+04   0.170E+01 -.984E+00 0.448E+00   0.548E-01 0.228E-01 -.211E+01
   -.116E+00 -.172E-01 0.118E+04   -.367E-02 -.276E-01 -.118E+04   -.286E-02 -.502E-03 -.212E+00   0.122E+00 0.440E-01 -.200E+01
   -.435E+01 -.256E+01 -.860E+03   0.405E+01 0.237E+01 0.864E+03   0.585E-01 0.341E-01 0.395E+00   0.234E+00 0.156E+00 -.333E+01
   -.282E+00 -.199E+00 0.319E+04   0.201E+00 0.112E+00 -.319E+04   -.340E-01 -.192E-01 -.144E+01   0.126E+00 0.113E+00 -.521E+00
   -.977E+02 -.563E+02 -.291E+04   0.992E+02 0.572E+02 0.291E+04   -.170E+01 -.981E+00 0.454E+00   0.469E-01 -.196E-01 -.213E+01
   0.669E-01 -.438E+01 0.118E+04   -.788E-01 0.422E+01 -.118E+04   0.316E-02 -.688E-01 -.135E+00   0.804E-02 0.251E+00 -.193E+01
   0.420E+01 -.244E+01 -.860E+03   -.401E+01 0.228E+01 0.863E+03   -.614E-01 0.344E-01 0.388E+00   -.115E+00 0.119E+00 -.331E+01
   -.183E-01 0.203E+00 0.319E+04   -.273E-02 -.252E+00 -.319E+04   -.242E-02 0.392E-01 -.145E+01   0.232E-01 -.424E-02 -.480E+00
   0.997E-02 0.113E+03 -.291E+04   -.337E-01 -.114E+03 0.291E+04   -.932E-02 0.196E+01 0.446E+00   0.332E-01 -.194E+00 -.210E+01
   0.379E+01 0.216E+01 0.118E+04   -.368E+01 -.214E+01 -.118E+04   0.587E-01 0.325E-01 -.138E+00   -.176E+00 -.632E-01 -.198E+01
   0.945E-01 0.158E+00 -.886E+03   -.801E-01 -.102E+00 0.891E+03   0.237E-02 0.687E-02 -.120E+01   -.167E-01 -.643E-01 -.326E+01
   0.297E-01 -.345E-01 0.319E+04   0.145E-01 0.624E-02 -.319E+04   0.173E-02 0.264E-03 -.125E+01   -.446E-01 0.288E-01 -.245E+00
   -.234E-01 -.689E-01 -.292E+04   0.884E-01 0.127E+00 0.292E+04   0.592E-02 -.817E-02 0.297E+01   -.713E-01 -.496E-01 -.247E+01
   -.382E+01 0.210E+01 0.118E+04   0.375E+01 -.209E+01 -.118E+04   -.594E-01 0.338E-01 -.136E+00   0.144E+00 -.530E-01 -.197E+01
   -.513E-01 0.487E+01 -.860E+03   0.662E-01 -.462E+01 0.863E+03   0.151E-02 -.683E-01 0.407E+00   -.167E-01 -.175E+00 -.345E+01
   0.619E-02 0.993E-01 0.319E+04   0.260E-02 -.245E+00 -.319E+04   -.127E-02 0.377E-01 -.145E+01   -.809E-02 0.925E-01 -.465E+00
   -.267E-01 0.113E+03 -.291E+04   0.265E-02 -.115E+03 0.291E+04   -.287E-02 0.196E+01 0.449E+00   0.266E-01 -.131E+00 -.215E+01
   0.384E+01 0.207E+01 0.118E+04   -.371E+01 -.214E+01 -.118E+04   0.590E-01 0.324E-01 -.136E+00   -.210E+00 0.246E-01 -.190E+01
   -.934E-01 -.830E-01 -.887E+03   0.919E-01 0.466E-01 0.891E+03   -.288E-02 0.284E-02 -.121E+01   0.500E-02 0.321E-01 -.329E+01
   -.178E-01 -.113E+00 0.319E+04   -.135E-01 -.114E-01 -.319E+04   0.946E-03 0.304E-03 -.125E+01   0.298E-01 0.124E+00 -.298E+00
   0.579E-01 0.109E+00 -.292E+04   -.702E-01 0.428E-01 0.292E+04   0.429E-02 -.572E-02 0.299E+01   0.800E-02 -.144E+00 -.249E+01
   -.380E+01 0.224E+01 0.118E+04   0.362E+01 -.219E+01 -.118E+04   -.607E-01 0.370E-01 -.137E+00   0.247E+00 -.959E-01 -.199E+01
   0.235E-01 0.490E+01 -.860E+03   -.497E-01 -.462E+01 0.863E+03   0.314E-02 -.652E-01 0.403E+00   0.229E-01 -.207E+00 -.334E+01
   0.505E-01 0.931E-01 -.231E+04   -.964E-01 -.528E-01 0.234E+04   0.110E-01 -.101E-02 -.283E+02   0.372E-01 -.409E-01 0.221E+00
   -.168E+00 -.122E+00 -.231E+04   0.137E+00 0.104E+00 0.234E+04   -.811E-02 -.987E-02 -.283E+02   0.397E-01 0.284E-01 0.122E+00
   0.158E+00 -.707E-01 -.231E+04   -.139E+00 0.237E-01 0.234E+04   0.918E-02 -.212E-02 -.283E+02   -.281E-01 0.514E-01 0.176E+00
   -.780E-01 -.104E+00 -.231E+04   0.104E+00 0.110E+00 0.234E+04   -.952E-02 -.129E-01 -.283E+02   -.181E-01 0.530E-02 0.226E+00
   0.942E-02 -.887E-02 0.249E+03   0.663E-12 -.246E-11 -.637E-11   0.448E-01 -.507E-01 -.121E+03   -.576E-01 0.572E-01 -.128E+03

 POSITION                                       TOTAL-FORCE (eV/Angst)
     -0.00000      1.94796      2.00000        -0.011485      0.007498      0.244857
     -0.02853      1.96442      8.07221         0.062464     -0.038901      0.023822
      1.24593      1.22862      4.03457        -0.000146     -0.000214     -0.258425
      0.00233      0.51054      6.00853        -0.005963     -0.003456      0.019875
      2.49184      1.94796      2.00000         0.012465      0.008084      0.248792
      2.52064      1.96339      8.07274        -0.066148     -0.035561      0.021901
      3.73777      1.22862      4.03457         0.000978      0.016572     -0.249890
      2.48925      0.51018      6.00860         0.007131     -0.003041      0.021084
      4.98369      1.94796      2.00000        -0.012547      0.006887      0.244534
      4.95506      1.96337      8.07293         0.060292     -0.032551      0.019913
      6.22962      1.22862      4.03457        -0.000599     -0.000871     -0.259368
      4.98644      0.51017      6.00893        -0.006060     -0.002324      0.019086
      7.47553      1.94796      2.00000         0.012486      0.007453      0.249590
      7.50482      1.96429      8.07241        -0.060171     -0.034458      0.019953
      8.72146      1.22862      4.03457         0.000012      0.016735     -0.250565
      7.47308      0.51049      6.00881         0.005824     -0.003123      0.019971
     -1.24593      4.10596      2.00000         0.000640     -0.013823      0.247125
     -1.24564      4.07284      8.07252        -0.001867      0.072528      0.023818
      0.00000      3.38662      4.03457        -0.013065     -0.007873     -0.251761
     -1.24567      2.66739      6.04531         0.000797     -0.002149      0.016426
      1.24592      4.10596      2.00000         0.000993      0.001632      0.124901
      1.24591      4.10493      7.95911        -0.000775      0.000581      0.084913
      2.49185      3.38662      4.03457         0.014696     -0.007616     -0.250795
      1.24616      2.66397      6.00845        -0.001461      0.008906      0.021239
      3.73776      4.10596      2.00000        -0.000981     -0.013514      0.246326
      3.73765      4.07179      8.07350        -0.000072      0.068265      0.018441
      4.98369      3.38662      4.03457        -0.015342     -0.009101     -0.250576
      3.73779      2.66653      6.04561        -0.000724      0.000882      0.017859
      6.22961      4.10596      2.00000        -0.000413      0.000615      0.125682
      6.22974      4.10511      7.95915         0.000002      0.000778      0.082953
      7.47554      3.38662      4.03457         0.014600     -0.008797     -0.251044
      6.22965      2.66389      6.00867        -0.000638      0.007540      0.019468
     -2.49185      6.26396      2.00000        -0.011848      0.006342      0.244690
     -2.52079      6.28029      8.07222         0.065667     -0.039591      0.022335
     -1.24592      5.54462      4.03457         0.000012     -0.001257     -0.258713
     -2.48948      4.82649      6.00860        -0.006517     -0.004017      0.019335
     -0.00000      6.26396      2.00000         0.013283      0.006486      0.247844
      0.02877      6.28016      8.07284        -0.064360     -0.038083      0.022225
      1.24593      5.54462      4.03457         0.001739      0.015468     -0.250399
     -0.00233      4.82663      6.00869         0.006481     -0.004773      0.021647
      2.49184      6.26396      2.00000        -0.011966      0.005532      0.243300
      2.46302      6.27943      8.07316         0.059182     -0.032130      0.017055
      3.73777      5.54462      4.03457        -0.000735     -0.001244     -0.258725
      2.49455      4.82619      6.00894        -0.007202     -0.003125      0.018739
      4.98369      6.26396      2.00000         0.011424      0.006391      0.247827
      5.01222      6.27972      8.07246        -0.058684     -0.033329      0.020147
      6.22962      5.54462      4.03457        -0.000640      0.016879     -0.249463
      4.98101      4.82609      6.00886         0.007954     -0.003444      0.018301
     -3.73777      8.42196      2.00000        -0.000236     -0.014610      0.247642
     -3.73808      8.38848      8.07253         0.000145      0.076290      0.027213
     -2.49184      7.70262      4.03457        -0.015650     -0.010287     -0.250375
     -3.73801      6.98308      6.04544         0.000054     -0.001172      0.014832
     -1.24593      8.42196      2.00000         0.001356      0.000799      0.125870
     -1.24607      8.42094      7.95903        -0.000376      0.000728      0.084558
      0.00000      7.70262      4.03457         0.015896     -0.009547     -0.250768
     -1.24594      6.97995      6.00845        -0.000240      0.009573      0.019557
      1.24592      8.42196      2.00000        -0.000513     -0.015424      0.246891
      1.24626      8.38830      8.07339        -0.000345      0.070664      0.021467
      2.49185      7.70262      4.03457        -0.015219     -0.010113     -0.250745
      1.24598      6.98296      6.04568         0.000701     -0.001356      0.017428
      3.73776      8.42196      2.00000        -0.000589      0.000073      0.126946
      3.73796      8.42116      7.95909         0.000104      0.001398      0.084400
      4.98369      7.70262      4.03457         0.014614     -0.010250     -0.249931
      3.73757      6.97986      6.00871        -0.000169      0.010123      0.017528
      1.24550      1.22844      9.17493         0.002287     -0.001568     -0.088432
      3.73794      5.54388      9.17393         0.000605      0.000662     -0.071529
     -1.24627      5.54458      9.17458         0.000103      0.002252     -0.084573
      6.23052      1.22872      9.17401        -0.001245     -0.001927     -0.074233
    total drift:                               -0.003351     -0.002339      0.428154

  FREE ENERGIE OF THE ION-ELECTRON SYSTEM (eV)
  free  energy   TOTEN  =      -376.57500966 eV

  energy  without entropy=     -376.57500966  energy(sigma->0) =     -376.57500966

 stress matrix after NEB project (eV)
    -24.10381      0.01114     -0.03119
      0.01114    -23.94069      0.09152
     -0.03119      0.09152     -1.56878
  FORCES: max atom, RMS     0.088476    0.043394
  FORCE total and by dimension    0.357834    0.088432
  Stress total and by dimension   34.009267   24.103812

 total charge

[...]

 magnetization (x)

# of ion       s       p       d       tot
    1       -0.009  -0.027   0.695   0.659
    2       -0.003  -0.013   0.554   0.538
    3       -0.008  -0.028   0.731   0.694
    4       -0.008  -0.026   0.715   0.681
    5       -0.009  -0.027   0.694   0.659
    6       -0.003  -0.013   0.554   0.538
    7       -0.007  -0.028   0.697   0.662
    8       -0.008  -0.026   0.716   0.682
    9       -0.009  -0.027   0.694   0.658
   10       -0.003  -0.013   0.552   0.536
   11       -0.008  -0.028   0.730   0.694
   12       -0.008  -0.026   0.715   0.681
   13       -0.009  -0.027   0.696   0.660
   14       -0.003  -0.013   0.554   0.538
   15       -0.007  -0.028   0.697   0.662
   16       -0.008  -0.026   0.718   0.684
   17       -0.009  -0.027   0.693   0.658
   18       -0.003  -0.013   0.555   0.539
   19       -0.007  -0.028   0.696   0.661
   20       -0.006  -0.022   0.584   0.556
   21       -0.001  -0.027   0.697   0.669
   22       -0.010  -0.016   0.728   0.701
   23       -0.007  -0.028   0.694   0.659
   24       -0.008  -0.026   0.714   0.680
   25       -0.009  -0.027   0.692   0.656
   26       -0.003  -0.013   0.553   0.537
   27       -0.007  -0.028   0.696   0.661
   28       -0.006  -0.022   0.583   0.555
   29       -0.001  -0.027   0.700   0.671
   30       -0.011  -0.016   0.729   0.703
   31       -0.007  -0.028   0.696   0.661
   32       -0.008  -0.026   0.715   0.682
   33       -0.009  -0.027   0.694   0.659
   34       -0.003  -0.013   0.555   0.539
   35       -0.008  -0.028   0.730   0.694
   36       -0.008  -0.026   0.715   0.681
   37       -0.009  -0.027   0.693   0.658
   38       -0.003  -0.013   0.554   0.538
   39       -0.007  -0.028   0.696   0.661
   40       -0.008  -0.026   0.717   0.683
   41       -0.009  -0.027   0.692   0.657
   42       -0.003  -0.013   0.553   0.537
   43       -0.008  -0.028   0.730   0.693
   44       -0.008  -0.026   0.714   0.681
   45       -0.009  -0.026   0.694   0.658
   46       -0.003  -0.013   0.554   0.538
   47       -0.007  -0.028   0.697   0.662
   48       -0.008  -0.026   0.717   0.683
   49       -0.009  -0.026   0.694   0.659
   50       -0.003  -0.013   0.556   0.540
   51       -0.007  -0.028   0.697   0.662
   52       -0.006  -0.022   0.582   0.554
   53       -0.001  -0.027   0.701   0.673
   54       -0.011  -0.016   0.729   0.702
   55       -0.007  -0.028   0.696   0.661
   56       -0.008  -0.026   0.715   0.681
   57       -0.009  -0.027   0.693   0.658
   58       -0.003  -0.013   0.553   0.537
   59       -0.007  -0.028   0.696   0.661
   60       -0.006  -0.022   0.583   0.555
   61       -0.001  -0.027   0.701   0.673
   62       -0.011  -0.016   0.729   0.702
   63       -0.007  -0.028   0.695   0.660
   64       -0.008  -0.026   0.715   0.681
   65        0.002   0.110   0.000   0.112
   66        0.002   0.109   0.000   0.111
   67        0.002   0.110   0.000   0.112
   68        0.002   0.110   0.000   0.111
tot         -0.419  -1.056  42.875  41.400

 BZINTS: Fermi energy:  0.486107;664.000000 electrons
         Band energy:***********;  BLOECHL correction: -0.054356