 vasp.5.4.4.18Apr17-6-g9f103f2a35 (build Sep 06 2021 19:49:22) complex

 executed on             LinuxIFC date 2022.01.02  19:19:06

 INCAR:
 POTCAR:    PAW_PBE Fe 06Sep2000
 POTCAR:    PAW_PBE Ni 02Aug2007

 POTCAR:    PAW_PBE Fe 06Sep2000
   VRHFIN =Fe:  d7 s1

   TITEL  = PAW_PBE Fe 06Sep2000
   POMASS =   55.847; ZVAL   =    8.000    mass and valenz
   ENMAX  =  267.882; ENMIN  =  200.911 eV

 POTCAR:    PAW_PBE Ni 02Aug2007
   VRHFIN =Ni:

   TITEL  = PAW_PBE Ni 02Aug2007
   POMASS =   58.690; ZVAL   =   10.000    mass and valenz
   ENMAX  =  269.532; ENMIN  =  202.149 eV

 Optimization of the real space projectors (new method)

 maximal supplied QI-value         = 16.25
 optimisation between [QCUT,QGAM] = [ 11.54, 23.24] = [ 37.28,151.24] Ry
 Optimized for a Real-space Cutoff    1.53 Angstroem

   l    n(q)    QCUT    max X(q) W(low)/X(q) W(high)/X(q)  e(spline)
   2     10    11.539    80.901    0.11E-03    0.14E-03    0.21E-06
   2     10    11.539    75.754    0.11E-03    0.14E-03    0.22E-06
   0     11    11.539    58.752    0.52E-04    0.18E-04    0.33E-06
   0     11    11.539    30.679    0.44E-04    0.16E-04    0.30E-06
   1     10    11.539    17.977    0.53E-04    0.29E-04    0.13E-06
   1     10    11.539    13.559    0.44E-04    0.25E-04    0.11E-06
 Optimization of the real space projectors (new method)

 maximal supplied QI-value         = 16.25
 optimisation between [QCUT,QGAM] = [ 11.54, 23.24] = [ 37.28,151.24] Ry
 Optimized for a Real-space Cutoff    1.45 Angstroem

   l    n(q)    QCUT    max X(q) W(low)/X(q) W(high)/X(q)  e(spline)
   2      9    11.539    60.317    0.19E-03    0.47E-04    0.16E-06
   2      9    11.539    55.921    0.19E-03    0.48E-04    0.16E-06
   0     10    11.539    51.690    0.80E-04    0.50E-04    0.24E-06
   0     10    11.539    30.015    0.73E-04    0.45E-04    0.22E-06
   1     10    11.539    18.849    0.87E-04    0.16E-03    0.71E-07
   1     10    11.539    14.624    0.73E-04    0.13E-03    0.64E-07
  PAW_PBE Fe 06Sep2000                  :
  PAW_PBE Ni 02Aug2007                  :

 POSCAR: POSCAR
  positions in direct lattice
  velocities in cartesian coordinates
 exchange correlation table for  LEXCH =        8
   RHO(1)=    0.500       N(1)  =     2000
   RHO(2)=  100.500       N(2)  =     4000

 ion  position               nearest neighbor table
   1  0.001  0.997  0.997-  36 2.46  32 2.48  27 2.50   4 2.50  37 2.52   7 2.53   3 2.53  21 2.54
                            38 2.54  41 2.54   5 2.56  48 2.58
   2  0.500  0.999  0.998-  33 2.50  11 2.50  39 2.51  47 2.52  37 2.52  40 2.52  24 2.54   8 2.54
                             3 2.55   9 2.56  46 2.56  22 2.56
   3  0.750  0.995  0.004-  35 2.48  46 2.51  38 2.51  48 2.51  27 2.52   1 2.53  10 2.53  41 2.54
                             2 2.55  40 2.55  24 2.55  11 2.60
   4  0.248  0.244  0.994-   7 2.49   1 2.50  37 2.50   6 2.51  18 2.52  39 2.54  43 2.54  14 2.54
                            38 2.55  13 2.55   5 2.56  15 2.61
   5  0.080  0.168  0.331-  38 2.48  10 2.49  42 2.49  48 2.49   7 2.51  43 2.52  41 2.53  15 2.54
                             4 2.56   1 2.56  32 2.56   6 2.58
   6  0.334  0.164  0.324-  32 2.50   4 2.51  39 2.51  37 2.52   9 2.53  17 2.53  33 2.54   8 2.55
                             7 2.56   5 2.58  18 2.60  15 2.61
   7  0.165  0.085  0.661-   4 2.49  43 2.51  36 2.51   5 2.51  41 2.52   1 2.53   9 2.53  34 2.54
                            37 2.55  18 2.55  32 2.55   6 2.56
   8  0.590  0.171  0.327-  40 2.46  10 2.49  19 2.51  17 2.51  39 2.52  11 2.53   2 2.54  46 2.54
                             6 2.55  33 2.56   9 2.58  20 2.61
   9  0.416  0.086  0.664-  39 2.50  37 2.50  11 2.51   6 2.53   7 2.53  33 2.54  18 2.56   2 2.56
                            34 2.56  47 2.56  20 2.58   8 2.58
  10  0.833  0.166  0.333-   5 2.49   8 2.49  48 2.50  46 2.50  42 2.50  38 2.51  40 2.51  41 2.52
                            19 2.53   3 2.53  44 2.54  11 2.54
  11  0.664  0.085  0.667-   2 2.50  40 2.51  35 2.51  20 2.51   9 2.51  46 2.52   8 2.53  47 2.53
                            44 2.53  10 2.54  41 2.55   3 2.60
  12  0.992  0.494  0.000-  16 2.46  40 2.47  44 2.49  31 2.49  21 2.51  13 2.52  19 2.52  23 2.52
                            42 2.53  38 2.53  22 2.57  26 2.60
  13  0.241  0.493  0.996-  43 2.49  38 2.49  42 2.51  15 2.52  12 2.52  45 2.53  26 2.55   4 2.55
                            24 2.56  22 2.57  14 2.57  25 2.61
  14  0.498  0.497  0.001-  18 2.50  30 2.51  15 2.53  24 2.53  39 2.54  17 2.54  45 2.54   4 2.54
                            16 2.56  13 2.57  27 2.57  28 2.59
  15  0.330  0.420  0.333-  42 2.49  25 2.50  43 2.51  13 2.52  45 2.52  18 2.52  14 2.53   5 2.54
                            17 2.58  28 2.58   4 2.61   6 2.61
  16  0.751  0.497  0.012-  12 2.46  17 2.50  20 2.50  19 2.52  39 2.52  40 2.52  27 2.53  21 2.53
                            29 2.55  31 2.56  14 2.56  30 2.56
  17  0.583  0.416  0.338-  18 2.50  16 2.50   8 2.51   6 2.53  28 2.53  14 2.54  20 2.56  19 2.57
                            15 2.58  30 2.58  39 2.58  29 2.61
  18  0.416  0.339  0.665-  45 2.49  17 2.50  14 2.50  43 2.51   4 2.52  15 2.52  30 2.54   7 2.55
                             9 2.56  39 2.56  20 2.60   6 2.60
  19  0.838  0.418  0.344-  44 2.46  42 2.48  23 2.49   8 2.51  20 2.51  29 2.52  16 2.52  12 2.52
                            10 2.53  31 2.54  17 2.57  40 2.60
  20  0.673  0.338  0.676-  39 2.48  44 2.49  40 2.49  16 2.50  19 2.51  11 2.51  31 2.53  30 2.54
                            17 2.56   9 2.58  18 2.60   8 2.61
  21  0.001  0.746  0.990-  31 2.38  22 2.45  34 2.48  27 2.50  12 2.51  16 2.53  36 2.53  23 2.53
                            37 2.53   1 2.54  32 2.55  29 2.58
  22  0.244  0.749  0.993-  21 2.45  37 2.49  23 2.51  47 2.52  34 2.52  26 2.54  24 2.55  33 2.55
                             2 2.56  12 2.57  13 2.57  25 2.58
  23  0.083  0.665  0.328-  29 2.45  19 2.49  26 2.49  22 2.51  42 2.52  12 2.52  25 2.53  34 2.53
                            21 2.53  32 2.54  33 2.56  31 2.58
  24  0.495  0.746  0.001-  25 2.48  45 2.50  14 2.53  47 2.53  35 2.53   2 2.54   3 2.55  22 2.55
                            13 2.56  46 2.57  28 2.58  27 2.61
  25  0.336  0.671  0.334-  33 2.46  24 2.48  47 2.50  15 2.50  26 2.51  46 2.51  45 2.53  23 2.53
                            28 2.57  22 2.58  42 2.59  13 2.61
  26  0.164  0.581  0.658-  42 2.49  23 2.49  44 2.50  31 2.51  25 2.51  43 2.52  45 2.52  22 2.54
                            47 2.55  34 2.55  13 2.55  12 2.60
  27  0.755  0.749  0.009-   1 2.50  30 2.50  21 2.50  28 2.51   3 2.52  16 2.53  29 2.53  36 2.54
                            48 2.55  14 2.57  24 2.61  35 2.62
  28  0.590  0.670  0.340-  48 2.50  27 2.51  35 2.52  30 2.52  46 2.53  17 2.53  45 2.55  29 2.56
                            25 2.57  15 2.58  24 2.58  14 2.59
  29  0.844  0.671  0.343-  23 2.45  31 2.48  32 2.48  36 2.50  19 2.52  27 2.53  16 2.55  28 2.56
                            30 2.57  48 2.57  21 2.58  17 2.61
  30  0.669  0.587  0.676-  27 2.50  14 2.51  36 2.51  28 2.52  31 2.53  20 2.54  18 2.54  35 2.55
                            45 2.56  16 2.56  29 2.57  17 2.58
  31  0.920  0.590  0.676-  21 2.38  34 2.45  29 2.48  12 2.49  26 2.51  20 2.53  30 2.53  36 2.54
                            19 2.54  16 2.56  44 2.57  23 2.58
  32  0.086  0.918  0.324-  29 2.48   1 2.48   6 2.50  37 2.51  34 2.52  23 2.54   7 2.55  21 2.55
                            48 2.56   5 2.56  33 2.57  36 2.61
  33  0.339  0.915  0.331-  25 2.46  46 2.49   2 2.50  47 2.50   9 2.54   6 2.54  22 2.55   8 2.56
                            23 2.56  34 2.56  32 2.57  37 2.58
  34  0.162  0.833  0.660-  31 2.45  21 2.48  37 2.51  32 2.52  36 2.52  22 2.52  23 2.53   7 2.54
                            26 2.55   9 2.56  33 2.56  47 2.58
  35  0.665  0.837  0.670-   3 2.48  47 2.49  46 2.49  11 2.51  28 2.52  48 2.53  24 2.53  36 2.53
                            45 2.55  30 2.55  41 2.55  27 2.62
  36  0.915  0.838  0.668-   1 2.46  48 2.48  29 2.50   7 2.51  30 2.51  34 2.52  41 2.52  35 2.53
                            21 2.53  27 2.54  31 2.54  32 2.61
  37  0.250  0.998  0.992-  22 2.49   9 2.50   4 2.50  32 2.51  34 2.51   1 2.52   2 2.52   6 2.52
                            39 2.53  21 2.53   7 2.55  33 2.58
  38  0.996  0.245  0.001-  41 2.46   5 2.48  13 2.49  40 2.50  10 2.51   3 2.51  42 2.53  12 2.53
                             1 2.54  44 2.54   4 2.55  43 2.56
  39  0.501  0.248  0.995-  20 2.48   9 2.50   6 2.51   2 2.51   8 2.52  16 2.52  40 2.53  37 2.53
                            14 2.54   4 2.54  18 2.56  17 2.58
  40  0.750  0.247  0.000-   8 2.46  12 2.47  20 2.49  38 2.50  11 2.51  10 2.51   2 2.52  44 2.52
                            16 2.52  39 2.53   3 2.55  19 2.60
  41  0.918  0.089  0.670-  38 2.46  44 2.48  43 2.48   7 2.52  48 2.52  10 2.52  36 2.52   5 2.53
                             3 2.54   1 2.54  11 2.55  35 2.55
  42  0.081  0.414  0.332-  19 2.48  26 2.49   5 2.49  15 2.49  10 2.50  13 2.51  43 2.51  23 2.52
                            44 2.53  12 2.53  38 2.53  25 2.59
  43  0.165  0.333  0.664-  41 2.48  13 2.49   7 2.51  18 2.51  15 2.51  42 2.51   5 2.52  26 2.52
                            44 2.52  45 2.53   4 2.54  38 2.56
  44  0.916  0.334  0.668-  19 2.46  41 2.48  20 2.49  12 2.49  26 2.50  43 2.52  40 2.52  42 2.53
                            11 2.53  10 2.54  38 2.54  31 2.57
  45  0.414  0.583  0.668-  18 2.49  24 2.50  47 2.51  15 2.52  26 2.52  43 2.53  25 2.53  13 2.53
                            14 2.54  28 2.55  35 2.55  30 2.56
  46  0.586  0.918  0.337-  33 2.49  35 2.49  48 2.50  10 2.50   3 2.51  25 2.51  11 2.52  47 2.53
                            28 2.53   8 2.54   2 2.56  24 2.57
  47  0.416  0.833  0.666-  35 2.49  25 2.50  33 2.50  45 2.51   2 2.52  22 2.52  46 2.53  11 2.53
                            24 2.53  26 2.55   9 2.56  34 2.58
  48  0.835  0.920  0.341-  36 2.48   5 2.49  10 2.50  46 2.50  28 2.50   3 2.51  41 2.52  35 2.53
                            27 2.55  32 2.56  29 2.57   1 2.58

IMPORTANT INFORMATION: All symmetrisations will be switched off!
NOSYMM: (Re-)initialisation of all symmetry stuff for point group C_1.

Automatic generation of k-mesh.
 generate k-points for:    3    3    4
Space group operators:
 irot       det(A)        alpha          n_x          n_y          n_z        tau_x        tau_y        tau_z
    1     1.000000     0.000001     1.000000     0.000000     0.000000     0.000000     0.000000     0.000000

 Subroutine IBZKPT returns following result:

 Found     19 irreducible k-points:

 Following reciprocal coordinates:
            Coordinates               Weight
  0.000000  0.000000  0.000000      1.000000
  0.333333  0.000000  0.000000      2.000000
  0.000000  0.333333  0.000000      2.000000
  0.333333  0.333333  0.000000      2.000000
 -0.333333  0.333333  0.000000      2.000000
  0.000000  0.000000  0.250000      2.000000
  0.333333  0.000000  0.250000      2.000000
 -0.333333  0.000000  0.250000      2.000000
  0.000000  0.333333  0.250000      2.000000
  0.333333  0.333333  0.250000      2.000000
[...]
    3        0.475   0.506   6.201   7.182
    4        0.477   0.511   6.212   7.200
    5        0.478   0.513   6.195   7.186
    6        0.478   0.510   6.204   7.192
    7        0.484   0.521   6.215   7.221
    8        0.481   0.519   6.208   7.208
    9        0.477   0.508   6.201   7.186
   10        0.479   0.510   6.202   7.191
   11        0.477   0.506   6.211   7.194
   12        0.486   0.523   6.213   7.222
   13        0.474   0.506   6.187   7.167
   14        0.479   0.514   6.201   7.194
   15        0.478   0.509   6.199   7.185
   16        0.486   0.528   6.221   7.234
   17        0.480   0.514   6.208   7.202
   18        0.479   0.513   6.207   7.199
   19        0.488   0.524   6.229   7.241
   20        0.481   0.516   6.202   7.199
   21        0.496   0.548   6.289   7.333
   22        0.484   0.523   6.212   7.219
   23        0.492   0.537   6.241   7.270
   24        0.477   0.504   6.200   7.180
   25        0.480   0.511   6.216   7.207
   26        0.476   0.509   6.196   7.181
   27        0.486   0.524   6.216   7.226
   28        0.475   0.507   6.189   7.171
   29        0.487   0.527   6.222   7.235
   30        0.484   0.521   6.217   7.222
   31        0.495   0.547   6.283   7.325
   32        0.482   0.518   6.214   7.214
   33        0.479   0.512   6.213   7.205
   34        0.486   0.526   6.220   7.232
   35        0.475   0.508   6.205   7.188
   36        0.488   0.531   6.234   7.253
   37        0.523   0.543   8.307   9.373
   38        0.514   0.519   8.307   9.339
   39        0.517   0.531   8.305   9.353
   40        0.519   0.536   8.314   9.370
   41        0.515   0.526   8.305   9.346
   42        0.520   0.535   8.321   9.376
   43        0.512   0.521   8.310   9.342
   44        0.513   0.522   8.308   9.343
   45        0.517   0.527   8.313   9.357
   46        0.520   0.538   8.315   9.373
   47        0.515   0.529   8.312   9.356
   48        0.518   0.535   8.305   9.359
tot         23.543  24.993 323.418 371.954

 magnetization (x)

[...]

  FORCE on cell =-STRESS in cart. coord.  units (eV):
  Direction    XX          YY          ZZ          XY          YZ          ZX
  Alpha Z  2769.74828  2769.74828  2769.74828
  Ewald  -10648.49551-10718.58302-10663.96770    22.75833    70.84543    -8.74992
  Hartree  2211.60782  2143.79652  2193.49888    21.48204    70.32472    -8.13096
  E(xc)   -2092.57901 -2092.67275 -2092.43544    -0.03473    -0.03400    -0.08052
  Local    1720.40016  1856.89038  1754.62120   -44.84944  -141.60871    15.10478
  n-local -1012.30058 -1013.61401 -1012.90076     0.76355     0.62105     0.21089
  augment  3507.48665  3508.86056  3507.30406     0.24993     0.14813     1.26011
  Kinetic  3549.31849  3548.81188  3546.77550     1.18641    -0.67617     2.29466
  Fock        0.00000     0.00000     0.00000     0.00000     0.00000     0.00000
  Total       5.18630     3.23784     2.64403     1.55608    -0.37956     1.90904
  in kB      15.15509     9.46142     7.72624     4.54709    -1.10913     5.57848

 VOLUME and BASIS-vectors are now :
  energy-cutoff  :      520.00
  volume of cell :      548.29
      direct lattice vectors                 reciprocal lattice vectors
     7.150000000 -7.150000000  0.000000000     0.093240093 -0.046620047 -0.046620047
     0.000000000  7.150000000 -7.150000000     0.046620047  0.046620047 -0.093240093
     3.575000000  3.575000000  3.575000000     0.093240093  0.093240093  0.093240093

  length of vectors
    10.111626971 10.111626971  6.192081637     0.114195326  0.114195326  0.161496579

 FORCES acting on ions
    electron-ion (+dipol)            ewald-force                    non-local-force                 convergence-correction
   -.860E+01 0.426E+02 -.592E+02   0.864E+01 -.430E+02 0.592E+02   -.289E-01 0.337E+00 -.314E-01   0.104E-02 -.276E-02 0.223E-02
   0.240E+02 -.105E+01 -.336E+02   -.240E+02 0.902E+00 0.338E+02   0.299E-01 0.143E+00 -.143E+00   -.165E-02 0.119E-02 0.281E-03
   0.502E+02 0.330E+02 -.591E+02   -.508E+02 -.332E+02 0.594E+02   0.603E+00 0.184E+00 -.308E+00   0.387E-03 0.124E-02 -.527E-03
   -.662E+02 0.368E+01 -.188E+01   0.663E+02 -.340E+01 0.177E+01   -.113E+00 -.285E+00 0.123E+00   -.874E-03 -.660E-03 0.125E-02
   -.500E+02 0.103E+03 -.129E+02   0.502E+02 -.103E+03 0.128E+02   -.196E+00 0.730E+00 0.368E-01   -.621E-03 0.709E-03 0.104E-02
   -.355E+02 -.294E+02 -.113E+02   0.357E+02 0.298E+02 0.116E+02   -.209E+00 -.448E+00 -.264E+00   -.844E-03 -.176E-02 0.212E-02
   -.152E+02 0.847E+02 -.749E+01   0.153E+02 -.850E+02 0.774E+01   -.133E+00 0.344E+00 -.257E+00   -.340E-03 -.127E-02 0.196E-02
   0.144E+02 -.863E+02 -.101E+02   -.143E+02 0.867E+02 0.105E+02   -.128E+00 -.378E+00 -.352E+00   0.496E-03 -.484E-03 0.107E-02
   0.431E+02 0.590E+01 0.469E+02   -.432E+02 -.625E+01 -.472E+02   0.281E-01 0.354E+00 0.336E+00   -.261E-03 -.803E-03 0.183E-02
   0.382E+02 -.259E+02 -.648E+01   -.383E+02 0.261E+02 0.644E+01   0.121E+00 -.237E+00 0.376E-01   0.663E-03 0.127E-02 0.934E-04
   0.512E+02 -.344E+02 -.778E+01   -.515E+02 0.347E+02 0.790E+01   0.273E+00 -.335E+00 -.132E+00   -.480E-03 0.434E-03 -.126E-02
   -.330E+02 -.673E+02 0.802E+02   0.334E+02 0.676E+02 -.806E+02   -.349E+00 -.330E+00 0.439E+00   -.166E-03 0.208E-02 -.250E-02
   -.826E+02 -.154E+02 0.377E+02   0.831E+02 0.156E+02 -.379E+02   -.521E+00 -.170E+00 0.202E+00   -.188E-02 0.188E-02 -.574E-03
   -.507E+02 -.124E+02 0.148E+01   0.508E+02 0.126E+02 -.157E+01   -.610E-01 -.143E+00 0.858E-01   0.969E-03 0.942E-04 0.568E-03
   -.429E+02 0.915E+02 0.322E+02   0.429E+02 -.922E+02 -.325E+02   0.102E-01 0.676E+00 0.292E+00   -.685E-03 0.920E-03 0.979E-04
   -.117E+01 -.695E+02 0.464E+02   0.131E+01 0.697E+02 -.468E+02   -.138E+00 -.203E+00 0.426E+00   0.358E-02 -.156E-02 -.152E-02
   -.172E+02 -.314E+02 0.152E+02   0.174E+02 0.316E+02 -.152E+02   -.236E+00 -.171E+00 0.165E-01   0.118E-02 -.169E-02 -.363E-03
   -.234E+02 0.656E+02 0.162E+02   0.236E+02 -.659E+02 -.161E+02   -.101E+00 0.293E+00 -.788E-01   -.588E-03 -.954E-03 0.130E-02
   0.431E+02 -.922E+02 0.503E+02   -.436E+02 0.923E+02 -.507E+02   0.518E+00 -.169E+00 0.401E+00   0.118E-02 -.341E-03 -.822E-03
   0.723E+02 -.438E+02 0.682E+02   -.728E+02 0.438E+02 -.684E+02   0.460E+00 0.738E-02 0.273E+00   0.143E-02 -.179E-02 0.327E-03
   0.133E+02 -.261E+02 -.221E+02   -.133E+02 0.264E+02 0.223E+02   -.548E-02 -.312E+00 -.185E+00   0.148E-02 -.126E-02 0.386E-03
   -.395E+01 -.873E+01 -.273E+02   0.422E+01 0.854E+01 0.278E+02   -.264E+00 0.178E+00 -.543E+00   -.255E-02 0.330E-02 -.785E-03
   0.341E+01 -.384E+02 0.474E+02   -.316E+01 0.385E+02 -.477E+02   -.248E+00 -.122E+00 0.315E+00   -.169E-02 0.637E-03 -.196E-02
   -.205E+02 0.164E+02 -.417E+02   0.208E+02 -.163E+02 0.417E+02   -.294E+00 -.122E+00 -.133E-01   -.536E-03 0.225E-02 -.384E-03
   0.368E+02 0.330E+02 0.293E+02   -.371E+02 -.330E+02 -.294E+02   0.291E+00 0.672E-02 0.146E+00   -.115E-02 0.186E-02 -.930E-03
   -.209E+02 -.703E+02 0.515E+02   0.210E+02 0.708E+02 -.518E+02   -.855E-01 -.442E+00 0.335E+00   -.128E-02 0.224E-02 0.639E-05
   0.254E+02 0.305E+02 -.422E+02   -.258E+02 -.306E+02 0.420E+02   0.493E+00 0.105E+00 0.228E+00   0.360E-02 -.217E-02 0.729E-03
   0.214E+02 0.746E+02 -.369E+02   -.215E+02 -.749E+02 0.371E+02   0.188E+00 0.337E+00 -.228E+00   0.615E-03 -.180E-03 -.114E-02
   0.262E+02 0.555E+01 -.202E+02   -.264E+02 -.564E+01 0.204E+02   0.208E+00 0.875E-01 -.134E+00   0.159E-02 -.281E-02 -.187E-02
   -.867E+01 0.253E+02 -.484E+01   0.872E+01 -.253E+02 0.484E+01   -.435E-01 0.101E+00 0.663E-02   0.209E-02 -.204E-02 -.533E-03
   0.297E+02 -.421E+02 0.388E+02   -.299E+02 0.422E+02 -.389E+02   0.203E+00 -.322E-01 0.122E-01   0.296E-02 0.511E-03 -.829E-04
   -.201E+02 0.186E+02 -.333E+02   0.204E+02 -.184E+02 0.337E+02   -.286E+00 -.232E+00 -.319E+00   -.109E-02 -.290E-02 0.120E-02
   0.376E+02 -.445E+02 0.223E+01   -.379E+02 0.446E+02 -.241E+01   0.238E+00 -.138E+00 0.165E+00   -.166E-02 0.421E-03 -.287E-04
   0.323E+02 0.471E+01 0.209E+02   -.325E+02 -.479E+01 -.210E+02   0.259E+00 0.731E-01 0.715E-02   0.913E-04 0.132E-02 0.191E-02
   -.297E+02 0.275E+02 -.797E+02   0.300E+02 -.276E+02 0.801E+02   -.305E+00 0.737E-01 -.323E+00   -.229E-03 -.708E-04 -.208E-02
   -.888E+00 0.432E+02 -.571E+02   0.115E+01 -.434E+02 0.576E+02   -.254E+00 0.289E+00 -.452E+00   0.236E-02 -.238E-02 0.743E-03
   0.130E+02 -.316E+01 -.332E+02   -.132E+02 0.316E+01 0.334E+02   0.154E+00 0.173E-02 -.186E+00   -.186E-02 -.184E-02 0.402E-02
   -.629E+02 0.141E+02 -.292E+02   0.631E+02 -.142E+02 0.295E+02   -.227E+00 0.834E-01 -.207E+00   -.717E-03 0.127E-02 -.144E-02
   0.261E+01 -.601E+02 0.376E+02   -.259E+01 0.605E+02 -.378E+02   -.400E-01 -.367E+00 0.153E+00   -.120E-03 -.209E-02 0.174E-02
   0.325E+02 -.743E+02 -.458E+01   -.324E+02 0.744E+02 0.477E+01   -.504E-01 -.641E-01 -.192E+00   0.496E-03 0.117E-03 -.131E-02
   0.223E+02 0.611E+02 -.883E+02   -.225E+02 -.613E+02 0.886E+02   0.220E+00 0.129E+00 -.329E+00   -.671E-03 0.121E-03 -.187E-02
   -.235E+02 -.165E+01 0.981E+02   0.236E+02 0.177E+01 -.984E+02   -.116E+00 -.122E+00 0.305E+00   -.120E-02 0.248E-02 0.589E-04
   -.891E+02 0.703E+02 0.158E+02   0.894E+02 -.706E+02 -.158E+02   -.274E+00 0.260E+00 -.554E-01   -.219E-02 0.193E-02 -.401E-04
   0.450E+02 -.795E+02 0.684E+02   -.452E+02 0.797E+02 -.686E+02   0.138E+00 -.257E+00 0.162E+00   -.203E-03 0.345E-03 -.113E-02
   -.644E+02 0.471E+02 -.192E+01   0.646E+02 -.473E+02 0.174E+01   -.207E+00 0.171E+00 0.186E+00   -.208E-02 0.164E-02 -.662E-03
   0.627E+02 0.109E+02 -.533E+01   -.629E+02 -.109E+02 0.524E+01   0.211E+00 0.167E-01 0.857E-01   -.284E-04 0.148E-02 -.909E-03
   0.203E+02 -.578E+02 -.779E+01   -.203E+02 0.582E+02 0.780E+01   0.326E-01 -.421E+00 -.155E-01   -.151E-02 0.280E-02 -.115E-02
   0.102E+02 0.103E+03 -.592E+02   -.104E+02 -.104E+03 0.593E+02   0.185E+00 0.484E+00 -.654E-01   0.117E-02 -.586E-03 0.266E-03
   0.512E-01 0.341E-01 0.420E-01   0.135E-12 -.853E-13 0.682E-12   -.486E-01 -.365E-01 -.411E-01   -.178E-02 0.214E-02 -.622E-03

 POSITION                                       TOTAL-FORCE (eV/Angst)
      3.57065     10.68210     -3.56168         0.013034      0.003108     -0.000446
      7.14329      7.13349     -3.57562        -0.022115     -0.007540     -0.021284
      5.37514      1.76640     -7.10062        -0.016625     -0.001468     -0.011332
      5.32686      3.52412      1.80838        -0.012246     -0.002901      0.016734
      1.75793      1.81053     -0.01530        -0.010024      0.004699     -0.003009
      3.54694     -0.05274     -0.01519        -0.003431     -0.010808      0.025832
      3.54299      1.79488      1.75521         0.011565     -0.003089     -0.005488
      5.38711     -1.82386     -0.05291         0.007128     -0.004023     -0.004221
      5.34325      0.01371      1.75929        -0.020831      0.006738     -0.004751
      7.15117     -3.57839      0.00344         0.001137      0.010714      0.001340
      7.13085     -1.75329      1.77393        -0.020025      0.014671     -0.016284
      7.09489     -3.56364     -3.52899         0.006906      0.004838      0.004998
      5.28788      5.36198      0.03559         0.002355      0.004007      0.003753
      3.56289     -0.00213     -3.55211         0.021549      0.012145      0.003018
      3.54923      1.83418     -1.81634        -0.004079     -0.013985      0.007714
      5.40758     -1.77182     -3.51141         0.011774      0.009698      0.019844
      5.37248      0.01577     -1.76608        -0.015862      0.004960      0.037376
      5.34882      1.82361     -0.04542         0.010790     -0.007464     -0.002941
      7.22206     -1.76863     -1.76041         0.006386     -0.006386      0.002155
      7.22561      0.02260     -0.00008        -0.000237     -0.010164      0.025092
      3.54654      8.86693     -1.79190        -0.018438      0.015921      0.007719
      5.29804      7.15694     -1.80415         0.000612     -0.004022      0.012654
      1.76733      5.33068     -3.57895        -0.005283     -0.001443     -0.008776
      3.54396      1.79629     -5.32791         0.009354      0.003333     -0.007592
      3.59727      3.58487     -3.60405        -0.004326     -0.010043     -0.011514
      3.52068      5.33783     -1.80507        -0.014830      0.005032     -0.020499
      5.43179     -0.01303     -5.32301         0.017630      0.016778     -0.015202
      5.43477      1.78787     -3.57439        -0.002979      0.015142      0.002738
      7.25958     -0.01310     -3.56804        -0.001600     -0.003013      0.006243
      7.20350      1.83344     -1.78177         0.007850      0.020844      0.008764
      8.99577      0.05398     -1.80087         0.015509      0.015015     -0.026552
      1.77375      7.10243     -5.40499         0.005236     -0.006998     -0.002502
      3.60798      5.30326     -5.36123         0.012550     -0.017054     -0.012156
      3.51797      7.15836     -3.59265        -0.007268     -0.005913     -0.015663
      7.14772      3.63201     -3.59125         0.012832     -0.010221      0.007758
      8.93361      1.83757     -3.60645         0.015339      0.006997      0.011252
      5.33662      8.88882     -3.58619        -0.003916      0.000032     -0.000697
      7.12839     -5.36835     -1.74925         0.001131     -0.008968     -0.005537
      7.13786      1.74789      1.78449        -0.010693     -0.001306     -0.011902
      5.36539     -3.59540     -1.76661         0.003676     -0.007893     -0.001723
      8.95795     -3.53068      1.76008        -0.002687     -0.006718      0.004393
      1.76583      3.57366     -1.77436         0.001361      0.000535     -0.007744
      3.55261      3.57407     -0.00859         0.002862      0.008828      0.017018
      8.93828     -1.77903     -0.00017        -0.008117      0.002179     -0.003649
      5.34854      3.60020     -1.78340         0.012452     -0.009108      0.005512
      5.39517      3.57616     -5.36125         0.003449     -0.013118     -0.007366
      5.35875      5.35768     -3.57132        -0.008344      0.000230     -0.002389
      7.18672      1.82979     -5.36044        -0.000513     -0.012797     -0.000690
    total drift:                                0.000832     -0.000165      0.000308

  FREE ENERGIE OF THE ION-ELECTRON SYSTEM (eV)
  free  energy   TOTEN  =      -358.79803079 eV

  energy  without entropy=     -358.79803079  energy(sigma->0) =     -358.79803079

 total charge

[...]

 magnetization (x)

# of ion       s       p       d       tot
    1       -0.007  -0.029   2.494   2.458
    2       -0.007  -0.032   2.631   2.592
    3       -0.008  -0.030   2.616   2.578
    4       -0.011  -0.036   2.564   2.517
    5       -0.008  -0.031   2.637   2.599
    6       -0.013  -0.041   2.567   2.513
    7       -0.014  -0.039   2.548   2.496
    8       -0.013  -0.042   2.569   2.514
    9       -0.010  -0.041   2.588   2.537
   10       -0.004  -0.021   2.623   2.598
   11       -0.009  -0.029   2.580   2.542
   12       -0.002  -0.023   2.442   2.417
   13       -0.009  -0.033   2.644   2.601
   14       -0.013  -0.042   2.585   2.530
   15       -0.013  -0.038   2.618   2.567
   16       -0.008  -0.031   2.422   2.383
   17       -0.017  -0.046   2.543   2.480
   18       -0.011  -0.038   2.581   2.531
   19       -0.010  -0.033   2.432   2.390
   20       -0.006  -0.032   2.540   2.502
   21       -0.028  -0.059   0.004  -0.083
   22       -0.012  -0.042   2.418   2.364
   23       -0.012  -0.038   2.185   2.135
   24       -0.010  -0.039   2.605   2.556
   25       -0.010  -0.032   2.526   2.484
   26       -0.003  -0.025   2.531   2.503
   27       -0.014  -0.045   2.432   2.372
   28       -0.010  -0.036   2.627   2.581
   29       -0.008  -0.034   2.304   2.263
   30       -0.014  -0.042   2.418   2.362
   31       -0.031  -0.059  -0.170  -0.260
   32       -0.011  -0.037   2.465   2.418
   33       -0.011  -0.038   2.533   2.484
   34       -0.006  -0.030   2.354   2.317
   35       -0.007  -0.031   2.586   2.549
   36       -0.008  -0.031   2.374   2.335
   37       -0.029  -0.060   0.713   0.623
   38       -0.022  -0.052   0.751   0.677
   39       -0.028  -0.063   0.755   0.664
   40       -0.030  -0.060   0.728   0.638
   41       -0.026  -0.058   0.747   0.663
   42       -0.029  -0.059   0.699   0.610
   43       -0.025  -0.050   0.746   0.670
   44       -0.021  -0.042   0.711   0.648
   45       -0.030  -0.065   0.705   0.610
   46       -0.033  -0.067   0.725   0.625
   47       -0.031  -0.061   0.719   0.627
   48       -0.030  -0.064   0.759   0.665
tot         -0.721  -2.008  94.174  91.445

 BZINTS: Fermi energy:  6.642261;408.000000 electrons
         Band energy:1749.919520;  BLOECHL correction: -0.042267