 vasp.5.4.4.18Apr17-6-g9f103f2a35 (build Dec 15 2018 21:27:54) gamma-only

 executed on             LinuxIFC date 2022.03.01  01:53:51

 INCAR:
 POTCAR:    PAW_PBE Ni 02Aug2007
 POTCAR:    PAW_PBE O 08Apr2002

 POTCAR:    PAW_PBE Ni 02Aug2007
   VRHFIN =Ni:

   TITEL  = PAW_PBE Ni 02Aug2007
   POMASS =   58.690; ZVAL   =   10.000    mass and valenz
   ENMAX  =  269.532; ENMIN  =  202.149 eV

 POTCAR:    PAW_PBE O 08Apr2002
   VRHFIN =O: s2p4

   TITEL  = PAW_PBE O 08Apr2002
   POMASS =   16.000; ZVAL   =    6.000    mass and valenz
   ENMAX  =  400.000; ENMIN  =  300.000 eV

 Optimization of the real space projectors (new method)

 maximal supplied QI-value         = 16.25
 optimisation between [QCUT,QGAM] = [ 11.54, 23.24] = [ 37.28,151.24] Ry
 Optimized for a Real-space Cutoff    1.45 Angstroem

   l    n(q)    QCUT    max X(q) W(low)/X(q) W(high)/X(q)  e(spline)
   2      9    11.539    60.317    0.19E-03    0.47E-04    0.16E-06
   2      9    11.539    55.921    0.19E-03    0.48E-04    0.16E-06
   0     10    11.539    51.690    0.80E-04    0.50E-04    0.24E-06
   0     10    11.539    30.015    0.73E-04    0.45E-04    0.22E-06
   1     10    11.539    18.849    0.87E-04    0.16E-03    0.71E-07
   1     10    11.539    14.624    0.73E-04    0.13E-03    0.64E-07
 Optimization of the real space projectors (new method)

 maximal supplied QI-value         = 24.76
 optimisation between [QCUT,QGAM] = [ 11.64, 23.27] = [ 37.91,151.63] Ry
 Optimized for a Real-space Cutoff    1.14 Angstroem

   l    n(q)    QCUT    max X(q) W(low)/X(q) W(high)/X(q)  e(spline)
   0      8    11.635    20.381    0.10E-03    0.33E-03    0.24E-06
   0      8    11.635    15.268    0.11E-03    0.35E-03    0.26E-06
   1      7    11.635     5.964    0.24E-03    0.31E-03    0.30E-06
   1      7    11.635     5.382    0.22E-03    0.25E-03    0.26E-06
  PAW_PBE Ni 02Aug2007                  :
  PAW_PBE O 08Apr2002                   :

 POSCAR: POSCAR
  positions in direct lattice
  velocities in cartesian coordinates
 exchange correlation table for  LEXCH =        8
   RHO(1)=    0.500       N(1)  =     2000
   RHO(2)=  100.500       N(2)  =     4000

 VTST: version 3.2, (02/03/18)

 CHAIN: initializing optimizer

 OPT: Using VASP Dynamics algorithm
 CHAIN: Read ICHAIN            0

 POSCAR: POSCAR
  positions in direct lattice
  velocities in cartesian coordinates

 ion  position               nearest neighbor table
   1  0.113  0.226  0.095-  15 2.49  19 2.49   3 2.49   5 2.49  13 2.49  17 2.49  21 2.49  49 2.49
                            61 2.49
   2  0.109  0.227  0.382-  65 1.82  14 2.40  18 2.43  20 2.45  62 2.48  22 2.51  24 2.51   4 2.51
                             6 2.53  50 2.56
   3  0.196  0.142  0.191-   4 2.44   8 2.45  24 2.45   5 2.49  49 2.49   1 2.49   7 2.49  15 2.49
                            19 2.49  23 2.49  51 2.49  63 2.49
   4  0.030  0.059  0.285-  62 2.43   3 2.44  15 2.44  63 2.44   8 2.49  24 2.49  52 2.50  20 2.50
                            64 2.50  16 2.50  50 2.51   2 2.51
   5  0.363  0.226  0.095-   3 2.49  23 2.49   7 2.49   9 2.49   1 2.49  21 2.49  25 2.49  49 2.49
                            53 2.49
   6  0.360  0.225  0.390-  69 1.82  65 1.85  10 2.52  50 2.53   2 2.53  22 2.53  26 2.53  54 2.53
                            28 2.60  24 2.61   8 2.62
   7  0.446  0.142  0.191-  12 2.45   8 2.46   9 2.49  53 2.49   5 2.49   3 2.49  11 2.49  27 2.49
                            51 2.49  23 2.49  55 2.49  28 2.50
   8  0.280  0.060  0.286-  54 2.41   3 2.45   7 2.46  51 2.46  24 2.47  28 2.48   4 2.49  12 2.50
                            52 2.50  56 2.50  50 2.51   6 2.62
   9  0.613  0.226  0.095-   7 2.49  27 2.49  11 2.49  13 2.49   5 2.49  25 2.49  29 2.49  53 2.49
                            57 2.49
  10  0.614  0.225  0.389-  69 1.82  68 1.85   6 2.52  26 2.52  54 2.53  30 2.53  58 2.53  14 2.53
                            28 2.59  32 2.61  12 2.61
  11  0.696  0.142  0.191-  16 2.44  12 2.45  32 2.45  13 2.49  57 2.49   9 2.49  15 2.49   7 2.49
                            27 2.49  55 2.49  31 2.49  59 2.49
  12  0.530  0.060  0.286-  54 2.42  11 2.45   7 2.45  55 2.46  32 2.47  28 2.49  16 2.49   8 2.50
                            60 2.50  56 2.50  58 2.51  10 2.61
  13  0.863  0.226  0.095-  11 2.49  31 2.49  15 2.49   9 2.49   1 2.49  29 2.49  17 2.49  57 2.49
                            61 2.49
  14  0.868  0.227  0.382-  68 1.82   2 2.40  18 2.43  20 2.45  62 2.48  30 2.50  32 2.51  16 2.51
                            10 2.53  58 2.56
  15  0.946  0.142  0.191-   4 2.44  16 2.44  20 2.47   1 2.49  61 2.49  13 2.49   3 2.49  11 2.49
                            31 2.49  59 2.49  19 2.49  63 2.49
  16  0.779  0.059  0.285-  62 2.42  11 2.44  15 2.44  59 2.44  32 2.49  12 2.49  60 2.50  20 2.50
                             4 2.50  64 2.50  58 2.51  14 2.51
  17  0.113  0.476  0.095-  31 2.49  35 2.49  19 2.49  21 2.49  29 2.49  13 2.49  33 2.49   1 2.49
                            37 2.49
  18  0.111  0.473  0.383-  67 1.84   2 2.43  14 2.43  20 2.47  22 2.48  30 2.48  36 2.53  40 2.53
                            34 2.54  38 2.54
  19  0.196  0.392  0.191-  40 2.44  24 2.46  20 2.47  21 2.49   1 2.49  17 2.49  31 2.49  23 2.49
                            15 2.49  35 2.49  39 2.49   3 2.49
  20  0.030  0.310  0.286-   2 2.45  14 2.45  31 2.47  18 2.47  19 2.47  15 2.47  36 2.49  40 2.49
                            16 2.50   4 2.50  24 2.50  32 2.50
  21  0.363  0.476  0.095-  19 2.49  39 2.49  23 2.49  25 2.49  17 2.49   5 2.49  37 2.49   1 2.49
                            41 2.49
  22  0.361  0.477  0.377-  40 2.41  44 2.42  24 2.42  18 2.48  38 2.48   2 2.51  42 2.51   6 2.53
                            26 2.53
  23  0.446  0.392  0.191-  24 2.46  44 2.46  25 2.49   5 2.49  21 2.49  27 2.49  19 2.49   3 2.49
                            39 2.49  43 2.49   7 2.49  28 2.49
  24  0.280  0.308  0.286-  22 2.42   3 2.45  23 2.46  19 2.46   8 2.47  28 2.48   4 2.49  20 2.50
                            44 2.50  40 2.50   2 2.51   6 2.61
  25  0.613  0.476  0.095-  23 2.49  43 2.49  27 2.49  29 2.49  21 2.49   9 2.49  41 2.49   5 2.49
                            45 2.49
  26  0.614  0.478  0.390-  69 1.82  66 1.85  10 2.52  46 2.53  42 2.53  22 2.53   6 2.53  30 2.53
                            28 2.60  44 2.61  48 2.62
  27  0.696  0.392  0.191-  32 2.45  48 2.46  29 2.49   9 2.49  25 2.49  23 2.49  31 2.49   7 2.49
                            43 2.49  47 2.49  11 2.49  28 2.50
  28  0.529  0.309  0.288-  44 2.48  24 2.48   8 2.48  48 2.48  12 2.49  32 2.49  23 2.49  27 2.50
                             7 2.50  10 2.59   6 2.60  26 2.60
  29  0.863  0.476  0.095-  27 2.49  47 2.49  31 2.49  25 2.49  17 2.49  13 2.49  33 2.49  45 2.49
                             9 2.49
  30  0.865  0.477  0.377-  36 2.41  48 2.41  32 2.42  34 2.48  18 2.48  14 2.50  46 2.51  10 2.53
                            26 2.53
  31  0.946  0.392  0.191-  36 2.44  32 2.46  20 2.47  17 2.49  13 2.49  29 2.49  27 2.49  19 2.49
                            15 2.49  35 2.49  11 2.49  47 2.49
  32  0.778  0.308  0.286-  30 2.42  11 2.45  27 2.45  31 2.46  12 2.47  28 2.49  16 2.49  48 2.50
                            20 2.50  36 2.50  14 2.51  10 2.61
  33  0.113  0.726  0.095-  47 2.49  51 2.49  35 2.49  37 2.49  45 2.49  29 2.49  49 2.49  17 2.49
                            53 2.49
  34  0.111  0.728  0.383-  67 1.84  46 2.43  50 2.43  52 2.47  54 2.47  30 2.48  56 2.53  36 2.53
                            18 2.54  38 2.54
  35  0.196  0.642  0.191-  40 2.44  36 2.44  56 2.44  37 2.49  17 2.49  33 2.49  47 2.49  39 2.49
                            31 2.49  51 2.49  55 2.49  19 2.49
  36  0.029  0.559  0.285-  30 2.41  47 2.44  35 2.44  31 2.44  20 2.49  52 2.49  40 2.49  56 2.49
                            32 2.50  48 2.50  18 2.53  34 2.53
  37  0.363  0.726  0.095-  35 2.49  55 2.49  39 2.49  41 2.49  33 2.49  21 2.49  53 2.49  17 2.49
                            57 2.49
  38  0.366  0.728  0.383-  67 1.84  42 2.43  58 2.43  60 2.47  22 2.48  54 2.48  56 2.53  40 2.53
                            34 2.54  18 2.54
  39  0.446  0.642  0.191-  40 2.44  44 2.46  60 2.47  41 2.49  21 2.49  37 2.49  35 2.49  43 2.49
                            23 2.49  55 2.49  59 2.49  19 2.49
  40  0.279  0.559  0.285-  22 2.41  35 2.44  39 2.44  19 2.44  20 2.49  60 2.49  36 2.49  56 2.49
                            44 2.50  24 2.50  18 2.53  38 2.53
  41  0.613  0.726  0.095-  39 2.49  59 2.49  43 2.49  45 2.49  37 2.49  25 2.49  57 2.49  21 2.49
                            61 2.49
  42  0.611  0.730  0.382-  66 1.82  58 2.40  38 2.43  60 2.45  62 2.48  22 2.51  44 2.51  64 2.51
                            26 2.53  46 2.56
  43  0.696  0.642  0.191-  64 2.44  48 2.45  44 2.45  45 2.49  25 2.49  41 2.49  39 2.49  47 2.49
                            27 2.49  59 2.49  63 2.49  23 2.49
  44  0.530  0.559  0.286-  22 2.42  43 2.45  23 2.46  39 2.46  48 2.47  28 2.48  64 2.49  60 2.50
                            24 2.50  40 2.50  42 2.51  26 2.61
  45  0.863  0.726  0.095-  43 2.49  63 2.49  47 2.49  41 2.49  33 2.49  29 2.49  49 2.49  61 2.49
                            25 2.49
  46  0.868  0.730  0.382-  66 1.82  50 2.40  34 2.43  52 2.45  62 2.48  30 2.51  48 2.51  64 2.51
                            26 2.53  42 2.56
  47  0.946  0.642  0.191-  36 2.44  48 2.46  52 2.47  33 2.49  29 2.49  45 2.49  43 2.49  35 2.49
                            31 2.49  51 2.49  27 2.49  63 2.49
  48  0.778  0.559  0.286-  30 2.41  43 2.45  27 2.46  47 2.46  44 2.47  28 2.48  64 2.49  32 2.50
                            52 2.50  36 2.50  46 2.51  26 2.62
  49  0.113  0.976  0.095-  63 2.49   3 2.49  51 2.49  61 2.49  53 2.49   1 2.49   5 2.49  33 2.49
                            45 2.49
  50  0.109  0.971  0.382-  65 1.82  46 2.40  34 2.43  52 2.45  62 2.48  54 2.51   8 2.51   4 2.51
                             6 2.53   2 2.56
  51  0.196  0.892  0.191-  56 2.44   8 2.46  52 2.47  53 2.49  33 2.49  49 2.49  55 2.49  63 2.49
                            35 2.49  47 2.49   3 2.49   7 2.49
  52  0.030  0.809  0.286-  46 2.45  50 2.45  34 2.47  51 2.47  47 2.47  63 2.47  56 2.49  36 2.49
                             4 2.50  64 2.50   8 2.50  48 2.50
  53  0.363  0.976  0.095-  51 2.49   7 2.49  55 2.49  49 2.49  57 2.49   5 2.49   9 2.49  33 2.49
                            37 2.49
  54  0.361  0.973  0.377-  56 2.41   8 2.41  12 2.42  34 2.47  38 2.48  58 2.50  50 2.51  10 2.53
                             6 2.53
  55  0.446  0.892  0.191-  56 2.44  12 2.46  60 2.47  57 2.49  37 2.49  53 2.49  59 2.49  51 2.49
                            11 2.49  39 2.49   7 2.49  35 2.49
  56  0.279  0.809  0.285-  54 2.41  51 2.44  55 2.44  35 2.44  60 2.49  52 2.49  36 2.49  40 2.49
                            12 2.50   8 2.50  38 2.53  34 2.53
  57  0.613  0.976  0.095-  55 2.49  11 2.49  59 2.49  53 2.49  61 2.49   9 2.49  13 2.49  37 2.49
                            41 2.49
  58  0.611  0.971  0.382-  68 1.82  42 2.40  38 2.43  60 2.45  62 2.48  54 2.50  12 2.51  16 2.51
                            10 2.53  14 2.56
[...]
      3.73777      5.54462      4.03457        -0.002766     -0.027526     -0.063775
      2.50166      4.82431      6.02730         0.034401     -0.019977     -0.011834
      4.98369      6.26396      2.00000         0.007798     -0.004382      0.079200
      5.01433      6.29867      8.05723        -0.169390     -0.076270      0.025905
      6.22962      5.54462      4.03457        -0.037064      0.000980     -0.096229
      4.97077      4.82416      6.02674        -0.032651     -0.019707     -0.011369
     -3.73777      8.42196      2.00000         0.007363     -0.005218      0.079090
     -3.75203      8.37897      8.05750        -0.019040      0.184718      0.025366
     -2.49184      7.70262      4.03457        -0.018890      0.032586     -0.096271
     -3.73479      6.98187      6.04292         0.008445     -0.004994      0.121307
     -1.24593      8.42196      2.00000         0.000241     -0.006204     -0.022583
     -1.24905      8.40094      7.95115         0.000241      0.014632      0.189690
      0.00000      7.70262      4.03457         0.015342      0.031137     -0.098437
     -1.24708      6.98414      6.00548        -0.000236      0.003157     -0.013672
      1.24592      8.42196      2.00000        -0.006901     -0.005150      0.079051
      1.25345      8.38006      8.05728         0.021855      0.185861      0.027682
      2.49185      7.70262      4.03457        -0.052148     -0.027374     -0.099585
      1.24046      6.98221      6.04293        -0.009548     -0.005798      0.121440
      3.73776      8.42196      2.00000         0.000298     -0.000624     -0.058490
      3.73438      8.42424      7.95623         0.002028     -0.000842      0.162407
      4.98369      7.70262      4.03457         0.048765     -0.027597     -0.099363
      3.73653      6.98129      6.00484        -0.000359      0.038085     -0.038656
      1.11649      1.15784      9.20383        -0.065659     -0.037257     -0.208958
      3.73513      5.69320      9.20376         0.000197      0.076797     -0.208564
     -1.24818      5.54639      9.18071        -0.000491      0.001719     -0.316964
      6.34689      1.16145      9.20099         0.073532     -0.042985     -0.206927
      3.73454      2.67017      9.29832        -0.000063     -0.001125      0.278763
    total drift:                               -0.000537      0.005832      0.041862

  FREE ENERGIE OF THE ION-ELECTRON SYSTEM (eV)
  free  energy   TOTEN  =      -384.29770065 eV

  energy  without entropy=     -380.33269131  energy(sigma->0) =     -382.31519598

 d Force =-0.2010183E-02[-0.836E-02, 0.434E-02]  d Energy =-0.1939796E-02-0.704E-04
 d Force =-0.7026725E+02[-0.703E+02,-0.702E+02]  d Ewald  =-0.7026872E+02 0.148E-02

 stress matrix after NEB project (eV)
    -44.38935     -0.05692      0.11011
     -0.05692    -44.47884     -0.08345
      0.11011     -0.08345     -2.00899
  FORCES: max atom, RMS     0.278765    0.033559
  FORCE total and by dimension    0.278765    0.278763
  Stress total and by dimension   62.871792   44.478838
 Finite differences progress:
  Degree of freedom:   3/  3
  Displacement:        2/  2
  Total:               6/  6

 SECOND DERIVATIVES (NOT SYMMETRIZED)
              69X         69Y         69Z
 69X   -10.960789   -0.005050    0.005883
 69Y    -0.063194  -11.014415    0.098521
 69Z    -0.040428   -0.035333  -14.117120

 Eigenvectors and eigenvalues of the dynamical matrix

   1 f  =   14.684870 THz    92.267762 2PiTHz  489.834536 cm-1    60.731764 meV
             X         Y         Z           dx          dy          dz
     -0.000005  1.947959  2.000002            0           0           0
     -0.048574  1.961931  8.057896            0           0           0
      1.245927  1.228619  4.034573            0           0           0
      0.001251  0.511619  6.004894            0           0           0
      2.491840  1.947959  2.000002            0           0           0
      2.471165  1.940521  8.225758            0           0           0
      3.737772  1.228619  4.034573            0           0           0
      2.486537  0.521430  6.026823            0           0           0
      4.983685  1.947959  2.000002            0           0           0
      4.993981  1.942391  8.219123            0           0           0
      6.229617  1.228619  4.034573            0           0           0
      4.985557  0.521407  6.026022            0           0           0
      7.475530  1.947959  2.000002            0           0           0
      7.516013  1.962977  8.057244            0           0           0
      8.721462  1.228619  4.034573            0           0           0
      7.471335  0.511889  6.004805            0           0           0
     -1.245927  4.105960  2.000002            0           0           0
     -1.248470  4.078977  8.072314            0           0           0
      0.000005  3.386620  4.034573            0           0           0
     -1.247521  2.672845  6.042991            0           0           0
      1.245918  4.105960  2.000002            0           0           0
      1.223427  4.119352  7.951878            0           0           0
      2.491850  3.386620  4.034573            0           0           0
      1.251844  2.659508  6.027350            0           0           0
      3.737763  4.105960  2.000002            0           0           0
      3.734279  4.128690  8.225353            0           0           0
      4.983695  3.386620  4.034573            0           0           0
      3.735519  2.668819  6.073169            0           0           0
      6.229608  4.105960  2.000002            0           0           0
      6.246677  4.119820  7.950997            0           0           0
      7.475540  3.386620  4.034573            0           0           0
      6.220281  2.659868  6.026028            0           0           0
     -2.491850  6.263961  2.000002            0           0           0
     -2.519087  6.280170  8.072400            0           0           0
     -1.245918  5.544621  4.034573            0           0           0
     -2.492936  4.826195  6.005450            0           0           0
     -0.000005  6.263961  2.000002            0           0           0
      0.022521  6.280330  8.072203            0           0           0
      1.245927  5.544621  4.034573            0           0           0
     -0.001187  4.826161  6.005495            0           0           0
      2.491840  6.263961  2.000002            0           0           0
      2.455846  6.299686  8.057874            0           0           0
      3.737772  5.544621  4.034573            0           0           0
      2.501659  4.824314  6.027295            0           0           0
      4.983685  6.263961  2.000002            0           0           0
      5.014335  6.298672  8.057233            0           0           0
      6.229617  5.544621  4.034573            0           0           0
      4.970766  4.824161  6.026738            0           0           0
     -3.737772  8.421962  2.000002            0           0           0
     -3.752032  8.378972  8.057498            0           0           0
     -2.491840  7.702622  4.034573            0           0           0
     -3.734790  6.981874  6.042922            0           0           0
     -1.245927  8.421962  2.000002            0           0           0
     -1.249054  8.400937  7.951153            0           0           0
      0.000005  7.702622  4.034573            0           0           0
     -1.247076  6.984140  6.005478            0           0           0
      1.245918  8.421962  2.000002            0           0           0
      1.253454  8.380063  8.057284            0           0           0
      2.491850  7.702622  4.034573            0           0           0
      1.240463  6.982209  6.042934            0           0           0
      3.737763  8.421962  2.000002            0           0           0
      3.734376  8.424240  7.956228            0           0           0
      4.983695  7.702622  4.034573            0           0           0
      3.736527  6.981293  6.004837            0           0           0
      1.116492  1.157844  9.203828            0           0           0
      3.735131  5.693197  9.203758            0           0           0
     -1.248179  5.546393  9.180705            0           0           0
      6.346887  1.161450  9.200986            0           0           0
      3.734541  2.670173  9.313324     0.005362   -0.010122    0.999934

[...]

   3 f  =   12.929373 THz    81.237645 2PiTHz  431.277441 cm-1    53.471607 meV
             X         Y         Z           dx          dy          dz
     -0.000005  1.947959  2.000002            0           0           0
     -0.048574  1.961931  8.057896            0           0           0
      1.245927  1.228619  4.034573            0           0           0
      0.001251  0.511619  6.004894            0           0           0
      2.491840  1.947959  2.000002            0           0           0
      2.471165  1.940521  8.225758            0           0           0
      3.737772  1.228619  4.034573            0           0           0
      2.486537  0.521430  6.026823            0           0           0
      4.983685  1.947959  2.000002            0           0           0
      4.993981  1.942391  8.219123            0           0           0
      6.229617  1.228619  4.034573            0           0           0
      4.985557  0.521407  6.026022            0           0           0
      7.475530  1.947959  2.000002            0           0           0
      7.516013  1.962977  8.057244            0           0           0
      8.721462  1.228619  4.034573            0           0           0
      7.471335  0.511889  6.004805            0           0           0
     -1.245927  4.105960  2.000002            0           0           0
     -1.248470  4.078977  8.072314            0           0           0
      0.000005  3.386620  4.034573            0           0           0
     -1.247521  2.672845  6.042991            0           0           0
      1.245918  4.105960  2.000002            0           0           0
      1.223427  4.119352  7.951878            0           0           0
      2.491850  3.386620  4.034573            0           0           0
      1.251844  2.659508  6.027350            0           0           0
      3.737763  4.105960  2.000002            0           0           0
      3.734279  4.128690  8.225353            0           0           0
      4.983695  3.386620  4.034573            0           0           0
      3.735519  2.668819  6.073169            0           0           0
      6.229608  4.105960  2.000002            0           0           0
      6.246677  4.119820  7.950997            0           0           0
      7.475540  3.386620  4.034573            0           0           0
      6.220281  2.659868  6.026028            0           0           0
     -2.491850  6.263961  2.000002            0           0           0
     -2.519087  6.280170  8.072400            0           0           0
     -1.245918  5.544621  4.034573            0           0           0
     -2.492936  4.826195  6.005450            0           0           0
     -0.000005  6.263961  2.000002            0           0           0
      0.022521  6.280330  8.072203            0           0           0
      1.245927  5.544621  4.034573            0           0           0
     -0.001187  4.826161  6.005495            0           0           0
      2.491840  6.263961  2.000002            0           0           0
      2.455846  6.299686  8.057874            0           0           0
      3.737772  5.544621  4.034573            0           0           0
      2.501659  4.824314  6.027295            0           0           0
      4.983685  6.263961  2.000002            0           0           0
      5.014335  6.298672  8.057233            0           0           0
      6.229617  5.544621  4.034573            0           0           0
      4.970766  4.824161  6.026738            0           0           0
     -3.737772  8.421962  2.000002            0           0           0
     -3.752032  8.378972  8.057498            0           0           0
     -2.491840  7.702622  4.034573            0           0           0
     -3.734790  6.981874  6.042922            0           0           0
     -1.245927  8.421962  2.000002            0           0           0
     -1.249054  8.400937  7.951153            0           0           0
      0.000005  7.702622  4.034573            0           0           0
     -1.247076  6.984140  6.005478            0           0           0
      1.245918  8.421962  2.000002            0           0           0
      1.253454  8.380063  8.057284            0           0           0
      2.491850  7.702622  4.034573            0           0           0
      1.240463  6.982209  6.042934            0           0           0
      3.737763  8.421962  2.000002            0           0           0
      3.734376  8.424240  7.956228            0           0           0
      4.983695  7.702622  4.034573            0           0           0
      3.736527  6.981293  6.004837            0           0           0
      1.116492  1.157844  9.203828            0           0           0
      3.735131  5.693197  9.203758            0           0           0
     -1.248179  5.546393  9.180705            0           0           0
      6.346887  1.161450  9.200986            0           0           0
      3.734541  2.670173  9.313324    -0.898394    0.439093    0.009262

 Finite differences POTIM=  1.500000000000000E-002

 total charge

# of ion       s       p       d       tot
    1        0.484   0.358   8.331   9.173
    2        0.496   0.516   8.346   9.357
    3        0.493   0.489   8.340   9.322
    4        0.495   0.489   8.351   9.335
    5        0.484   0.357   8.332   9.173
    6        0.477   0.587   8.345   9.408
    7        0.487   0.484   8.339   9.310
    8        0.493   0.481   8.345   9.320
    9        0.484   0.357   8.332   9.173
   10        0.477   0.588   8.345   9.410
   11        0.493   0.489   8.340   9.322
   12        0.494   0.482   8.345   9.321
   13        0.484   0.358   8.331   9.173
   14        0.496   0.516   8.346   9.357
   15        0.491   0.488   8.343   9.321
   16        0.495   0.489   8.351   9.335
   17        0.484   0.358   8.329   9.171
   18        0.490   0.501   8.338   9.329
   19        0.489   0.485   8.344   9.318
   20        0.502   0.500   8.336   9.339
   21        0.483   0.358   8.330   9.171
   22        0.474   0.361   8.390   9.226
   23        0.487   0.483   8.339   9.310
   24        0.493   0.481   8.345   9.320
   25        0.484   0.357   8.332   9.173
   26        0.477   0.587   8.345   9.408
   27        0.487   0.484   8.339   9.310
   28        0.483   0.460   8.334   9.276
   29        0.483   0.358   8.330   9.171
   30        0.475   0.361   8.390   9.226
   31        0.489   0.485   8.344   9.318
   32        0.494   0.482   8.345   9.321
   33        0.484   0.358   8.329   9.171
   34        0.490   0.501   8.337   9.328
   35        0.494   0.490   8.342   9.326
   36        0.495   0.488   8.350   9.333
   37        0.484   0.358   8.329   9.171
   38        0.490   0.501   8.337   9.328
   39        0.489   0.485   8.344   9.318
   40        0.495   0.488   8.350   9.333
   41        0.484   0.358   8.331   9.172
   42        0.496   0.516   8.345   9.357
   43        0.493   0.489   8.339   9.321
   44        0.493   0.481   8.345   9.320
   45        0.484   0.358   8.331   9.172
   46        0.496   0.516   8.346   9.357
   47        0.489   0.485   8.344   9.318
   48        0.493   0.481   8.345   9.320
   49        0.484   0.358   8.331   9.173
   50        0.496   0.516   8.345   9.357
   51        0.489   0.485   8.344   9.318
   52        0.502   0.500   8.336   9.339
   53        0.483   0.358   8.331   9.172
   54        0.475   0.361   8.390   9.225
   55        0.489   0.485   8.344   9.318
   56        0.495   0.488   8.350   9.333
   57        0.484   0.358   8.331   9.173
   58        0.496   0.516   8.345   9.357
   59        0.491   0.488   8.343   9.321
   60        0.502   0.500   8.336   9.339
   61        0.483   0.356   8.333   9.173
   62        0.473   0.364   8.390   9.227
   63        0.491   0.488   8.343   9.321
   64        0.495   0.489   8.351   9.335
   65        1.585   3.334   0.000   4.919
   66        1.585   3.334   0.000   4.919
   67        1.583   3.331   0.000   4.914
   68        1.585   3.334   0.000   4.919
   69        1.587   3.344   0.000   4.931
tot         39.198  45.771 533.958 618.926