 vasp.5.4.4.18Apr17-6-g9f103f2a35 (build Dec 15 2018 21:27:11) complex

 executed on             LinuxIFC date 2022.03.12  19:16:58

 INCAR:
 POTCAR:    PAW_PBE Fe 06Sep2000
 POTCAR:    PAW_PBE O 08Apr2002
 POTCAR:    PAW_PBE H 15Jun2001

 POTCAR:    PAW_PBE Fe 06Sep2000
   VRHFIN =Fe:  d7 s1

   TITEL  = PAW_PBE Fe 06Sep2000
   POMASS =   55.847; ZVAL   =    8.000    mass and valenz
   ENMAX  =  267.882; ENMIN  =  200.911 eV

 POTCAR:    PAW_PBE O 08Apr2002
   VRHFIN =O: s2p4

   TITEL  = PAW_PBE O 08Apr2002
   POMASS =   16.000; ZVAL   =    6.000    mass and valenz
   ENMAX  =  400.000; ENMIN  =  300.000 eV

 POTCAR:    PAW_PBE H 15Jun2001
   VRHFIN =H: ultrasoft test

   TITEL  = PAW_PBE H 15Jun2001
   POMASS =    1.000; ZVAL   =    1.000    mass and valenz
   ENMAX  =  250.000; ENMIN  =  200.000 eV

 Optimization of the real space projectors (new method)

 maximal supplied QI-value         = 16.25
 optimisation between [QCUT,QGAM] = [ 11.54, 23.24] = [ 37.28,151.24] Ry
 Optimized for a Real-space Cutoff    1.53 Angstroem

   l    n(q)    QCUT    max X(q) W(low)/X(q) W(high)/X(q)  e(spline)
   2     10    11.539    80.901    0.11E-03    0.14E-03    0.21E-06
   2     10    11.539    75.754    0.11E-03    0.14E-03    0.22E-06
   0     11    11.539    58.752    0.52E-04    0.18E-04    0.33E-06
   0     11    11.539    30.679    0.44E-04    0.16E-04    0.30E-06
   1     10    11.539    17.977    0.53E-04    0.29E-04    0.13E-06
   1     10    11.539    13.559    0.44E-04    0.25E-04    0.11E-06
 Optimization of the real space projectors (new method)

[...]

   l    n(q)    QCUT    max X(q) W(low)/X(q) W(high)/X(q)  e(spline)
   0      8    11.635    20.381    0.10E-03    0.33E-03    0.24E-06
   0      8    11.635    15.268    0.11E-03    0.35E-03    0.26E-06
   1      7    11.635     5.964    0.24E-03    0.31E-03    0.30E-06
   1      7    11.635     5.382    0.22E-03    0.25E-03    0.26E-06
 Optimization of the real space projectors (new method)

 maximal supplied QI-value         = 34.20
 optimisation between [QCUT,QGAM] = [ 11.63, 23.26] = [ 37.87,151.49] Ry
 Optimized for a Real-space Cutoff    1.21 Angstroem

   l    n(q)    QCUT    max X(q) W(low)/X(q) W(high)/X(q)  e(spline)
   0      8    11.629    19.460    0.17E-03    0.34E-03    0.21E-06
   0      8    11.629    12.209    0.16E-03    0.33E-03    0.21E-06
   1      8    11.629     4.655    0.18E-03    0.16E-03    0.26E-06
  PAW_PBE Fe 06Sep2000                  :
  PAW_PBE O 08Apr2002                   :
  PAW_PBE H 15Jun2001                   :

 POSCAR: POSCAR
  positions in direct lattice
  velocities in cartesian coordinates
 exchange correlation table for  LEXCH =        8
   RHO(1)=    0.500       N(1)  =     2000
   RHO(2)=  100.500       N(2)  =     4000

 VTST: version 3.2, (02/03/18)

 CHAIN: initializing optimizer

 OPT: Using VASP Dynamics algorithm
 CHAIN: Read ICHAIN            0

 POSCAR: POSCAR
  positions in direct lattice
  velocities in cartesian coordinates

 ion  position               nearest neighbor table
   1  0.087  0.163  0.095-   5 2.48  13 2.48  17 2.48  49 2.48  31 2.48   3 2.48  29 2.87  53 2.87
                            15 2.87  19 2.87
   2  0.088  0.160  0.285-  32 2.38   3 2.44  31 2.45  50 2.47   4 2.47  14 2.48   6 2.48  18 2.50
                            20 2.82  15 2.83  54 2.84  19 2.84  16 2.87  30 2.89
   3  0.212  0.038  0.191-   2 2.44  54 2.44  15 2.48   7 2.48  51 2.48  19 2.48  53 2.48   1 2.48
                             6 2.83  50 2.85  31 2.87  55 2.87  49 2.87   5 2.87
   4  0.206  0.031  0.381-  65 1.89  16 2.42  52 2.42  54 2.47   2 2.47   8 2.54  20 2.54  50 2.77
                            56 2.86  32 2.87   6 2.95
   5  0.337  0.163  0.095-   1 2.48   9 2.48  21 2.48  53 2.48   7 2.48  19 2.48  17 2.87  57 2.87
                             3 2.87  23 2.87
   6  0.338  0.163  0.285-   7 2.44  19 2.44  20 2.46   8 2.46  10 2.48  22 2.48   2 2.48  54 2.48
                            24 2.80  23 2.83   3 2.83  58 2.86  18 2.86   4 2.95
   7  0.462  0.038  0.191-   6 2.44  58 2.44  11 2.48   3 2.48  55 2.48  23 2.48  57 2.48   5 2.48
                            10 2.84  54 2.84  19 2.87  59 2.87  53 2.87   9 2.87
   8  0.460  0.036  0.380-  65 1.87  12 2.43  56 2.44  58 2.45   6 2.46  24 2.49   4 2.54  54 2.82
                            60 2.84  20 2.86  10 2.86
   9  0.587  0.163  0.095-   5 2.48  13 2.48  25 2.48  57 2.48  11 2.48  23 2.48  21 2.87  61 2.87
                             7 2.87  27 2.87
  10  0.588  0.162  0.286-  24 2.42  12 2.44  11 2.45  23 2.46  58 2.47   6 2.48  14 2.49  26 2.49
                             7 2.84  27 2.84  28 2.85  62 2.86   8 2.86  22 2.87
  11  0.712  0.038  0.191-  62 2.44  10 2.45  15 2.48   7 2.48  59 2.48  27 2.48  61 2.48   9 2.48
                            14 2.84  58 2.84  23 2.87  63 2.87  57 2.87  13 2.87
  12  0.707  0.029  0.379-  66 1.86  60 2.39  62 2.43   8 2.43  10 2.44  16 2.54  28 2.56  58 2.74
                            64 2.85  24 2.89  14 2.92
  13  0.837  0.163  0.095-   1 2.48   9 2.48  29 2.48  61 2.48  15 2.48  27 2.48  49 2.87  25 2.87
                            11 2.87  31 2.87
  14  0.838  0.163  0.285-  15 2.44  27 2.44  28 2.45  16 2.47   2 2.48  30 2.48  10 2.49  62 2.49
                            32 2.78  31 2.83  11 2.84  50 2.87  26 2.87  12 2.92
  15  0.962  0.038  0.191-  14 2.44  50 2.46   3 2.48  11 2.48  31 2.48  63 2.48  13 2.48  49 2.48
                             2 2.83  62 2.84  27 2.87  51 2.87   1 2.87  61 2.87
  16  0.961  0.033  0.380-  66 1.86   4 2.42  50 2.43  64 2.44  14 2.47  12 2.54  32 2.54  62 2.82
                            52 2.82  28 2.83   2 2.87
  17  0.087  0.413  0.095-  21 2.48  29 2.48   1 2.48  33 2.48  19 2.48  47 2.48  45 2.87   5 2.87
                            31 2.87  35 2.87
  18  0.088  0.412  0.285-  48 2.42  19 2.44  20 2.45  47 2.46  22 2.47  34 2.48  30 2.49   2 2.50
                            36 2.74  32 2.76  35 2.84  31 2.84   6 2.86  46 2.88
  19  0.212  0.288  0.191-   6 2.44  18 2.44  23 2.48  31 2.48   3 2.48  35 2.48   5 2.48  17 2.48
                            22 2.84   2 2.84   7 2.87  47 2.87  21 2.87   1 2.87
  20  0.211  0.285  0.380-  65 1.87  36 2.43  32 2.44  18 2.45   6 2.46  24 2.48   4 2.54   2 2.82
                            48 2.85   8 2.86  22 2.86
  21  0.337  0.413  0.095-  17 2.48  25 2.48   5 2.48  37 2.48  35 2.48  23 2.48   9 2.87  33 2.87
                            19 2.87  39 2.87
  22  0.337  0.413  0.286-  24 2.42  36 2.44  35 2.45  23 2.46  18 2.47   6 2.48  38 2.49  26 2.49
                            19 2.84  39 2.84  40 2.85  34 2.86  20 2.86  10 2.87
  23  0.462  0.288  0.191-  22 2.46  10 2.46  19 2.48  27 2.48   7 2.48  39 2.48  21 2.48   9 2.48
                             6 2.83  26 2.87  35 2.87  11 2.87   5 2.87  25 2.87
  24  0.460  0.286  0.378-  69 2.03  10 2.42  22 2.42  20 2.48   8 2.49  40 2.54  28 2.54   6 2.80
                            26 2.83  12 2.89  36 2.89
  25  0.587  0.413  0.095-  21 2.48  29 2.48   9 2.48  41 2.48  39 2.48  27 2.48  13 2.87  37 2.87
                            23 2.87  43 2.87
  26  0.588  0.413  0.287-  42 2.47  30 2.47  27 2.47  39 2.47  40 2.48  28 2.48  22 2.49  10 2.49
                            44 2.78  24 2.83  43 2.85  23 2.87  14 2.87  38 2.87
  27  0.712  0.288  0.191-  14 2.44  26 2.47  23 2.48  31 2.48  11 2.48  43 2.48  25 2.48  13 2.48
                            30 2.83  10 2.84  39 2.87  15 2.87   9 2.87  29 2.87
  28  0.717  0.283  0.381-  66 1.90  69 2.05  14 2.45  32 2.47  26 2.48  44 2.49  24 2.54  12 2.56
                            16 2.83  10 2.85  30 2.86  40 2.97
  29  0.837  0.413  0.095-  17 2.48  25 2.48  13 2.48  45 2.48  43 2.48  31 2.48   1 2.87  41 2.87
                            27 2.87  47 2.87
  30  0.837  0.413  0.285-  32 2.39  43 2.44  31 2.45  44 2.45  26 2.47  46 2.48  14 2.48  18 2.49
                            48 2.81  27 2.83  47 2.83  42 2.85  28 2.86   2 2.89
  31  0.962  0.288  0.191-  30 2.45   2 2.45  27 2.48  19 2.48  15 2.48  47 2.48   1 2.48  29 2.48
                            14 2.83  18 2.84  43 2.87   3 2.87  17 2.87  13 2.87
  32  0.964  0.288  0.375-   2 2.38  30 2.39  48 2.44  20 2.44  28 2.47  16 2.54  18 2.76  14 2.78
                             4 2.87  44 2.88
  33  0.087  0.663  0.095-  37 2.48  45 2.48  17 2.48  49 2.48  35 2.48  63 2.48  61 2.87  21 2.87
                            47 2.87  51 2.87
  34  0.088  0.662  0.285-  64 2.40  36 2.43  35 2.44  63 2.45  18 2.48  46 2.48  38 2.49  50 2.49
                            52 2.82  47 2.83  51 2.84  48 2.85  22 2.86  62 2.88
  35  0.212  0.538  0.191-  34 2.44  22 2.45  39 2.48  47 2.48  19 2.48  51 2.48  21 2.48  33 2.48
                            38 2.84  18 2.84  23 2.87  63 2.87  37 2.87  17 2.87
  36  0.204  0.532  0.379-  68 1.86  48 2.39  34 2.43  20 2.43  22 2.44  52 2.54  40 2.56  18 2.74
                            64 2.85  24 2.89  38 2.92
  37  0.337  0.663  0.095-  33 2.48  41 2.48  21 2.48  53 2.48  51 2.48  39 2.48  25 2.87  49 2.87
                            35 2.87  55 2.87
  38  0.338  0.663  0.285-  51 2.44  39 2.44  40 2.45  52 2.47  54 2.48  42 2.48  22 2.49  34 2.49
                            56 2.78  55 2.83  35 2.84  50 2.87  26 2.87  36 2.92
  39  0.462  0.538  0.191-  38 2.44  26 2.47  35 2.48  43 2.48  23 2.48  55 2.48  37 2.48  25 2.48
                            42 2.83  22 2.84  51 2.87  27 2.87  21 2.87  41 2.87
  40  0.458  0.542  0.381-  68 1.90  69 2.05  38 2.45  56 2.47  26 2.48  44 2.49  24 2.54  36 2.56
                            52 2.83  22 2.85  42 2.86  28 2.97
  41  0.587  0.663  0.095-  37 2.48  45 2.48  25 2.48  57 2.48  55 2.48  43 2.48  29 2.87  53 2.87
                            39 2.87  59 2.87
  42  0.588  0.662  0.285-  56 2.39  43 2.44  55 2.45  44 2.45  26 2.47  46 2.48  38 2.48  58 2.49
                            60 2.81  39 2.83  59 2.83  30 2.85  40 2.86  54 2.89
  43  0.712  0.538  0.191-  42 2.44  30 2.44  39 2.48  47 2.48  27 2.48  59 2.48  41 2.48  29 2.48
                            46 2.82  26 2.85  55 2.87  31 2.87  25 2.87  45 2.87
  44  0.710  0.536  0.379-  67 1.94  42 2.45  30 2.45  40 2.49  28 2.49  60 2.50  48 2.50  26 2.78
                            46 2.87  56 2.87  32 2.88
  45  0.837  0.663  0.095-  33 2.48  41 2.48  29 2.48  61 2.48  59 2.48  47 2.48  17 2.87  57 2.87
                            43 2.87  63 2.87
  46  0.837  0.663  0.284-  47 2.43  59 2.43  48 2.47  60 2.47  30 2.48  42 2.48  34 2.48  62 2.48
                            64 2.80  43 2.82  63 2.82  44 2.87  58 2.88  18 2.88
  47  0.962  0.538  0.191-  46 2.43  18 2.46  43 2.48  35 2.48  31 2.48  63 2.48  17 2.48  45 2.48
                            34 2.83  30 2.83  59 2.87  19 2.87  33 2.87  29 2.87
  48  0.963  0.533  0.379-  67 1.86  36 2.39  18 2.42  32 2.44  46 2.47  44 2.50  64 2.52  30 2.81
                            20 2.85  34 2.85  60 2.92
  49  0.087  0.913  0.095-  53 2.48  61 2.48   1 2.48  33 2.48  15 2.48  51 2.48  37 2.87  13 2.87
                             3 2.87  63 2.87
  50  0.087  0.912  0.286-  16 2.43  52 2.43  51 2.46  15 2.46  54 2.47   2 2.47  34 2.49  62 2.49
[...]
   0.136E+01 -.364E+00 0.753E+03   -.135E+01 0.224E+00 -.749E+03   0.451E-01 0.576E-01 -.409E+00   -.928E-01 0.132E+00 -.352E+01
   0.537E+02 -.923E+02 -.168E+04   -.540E+02 0.945E+02 0.167E+04   0.391E+00 -.191E+01 0.277E+01   -.845E-01 -.263E+00 0.159E+01
   0.133E+00 -.579E-01 0.192E+04   0.615E-01 -.303E-01 -.192E+04   0.443E-01 0.184E-01 -.352E+01   -.221E+00 0.764E-01 -.325E+01
   0.495E+01 -.311E+00 -.444E+03   -.466E+01 0.276E+00 0.443E+03   0.147E+00 0.126E+00 0.560E+00   -.453E+00 -.737E-01 0.165E+00
   -.127E+01 -.806E+00 0.753E+03   0.140E+01 0.879E+00 -.749E+03   -.348E-01 -.258E-01 -.520E+00   -.878E-01 -.467E-01 -.362E+01
   0.656E+02 0.465E+02 -.162E+04   -.650E+02 -.461E+02 0.162E+04   0.165E+00 0.119E+00 0.463E+01   -.729E+00 -.530E+00 0.158E+01
   0.220E+00 0.166E+00 0.192E+04   -.192E+00 -.158E+00 -.192E+04   -.420E-01 -.300E-01 -.355E+01   0.229E-01 0.282E-01 -.329E+01
   -.124E+00 0.719E-01 -.449E+03   0.448E+00 0.138E+00 0.449E+03   -.212E+00 -.151E+00 0.219E-02   -.125E+00 -.691E-01 -.132E+00
   0.190E+01 -.741E+00 0.753E+03   -.205E+01 0.952E+00 -.749E+03   0.526E-01 0.550E-01 -.399E+00   0.525E-01 -.185E+00 -.377E+01
   -.633E+02 -.459E+02 -.160E+04   0.643E+02 0.467E+02 0.159E+04   -.113E+01 -.379E+00 0.309E+01   0.152E+00 -.413E+00 0.149E+01
   -.245E+00 0.174E+00 0.192E+04   0.425E-01 -.308E+00 -.192E+04   0.485E-01 0.907E-02 -.349E+01   0.155E+00 0.118E+00 -.328E+01
   -.686E+01 0.116E+01 -.445E+03   0.617E+01 -.100E+01 0.444E+03   0.255E+00 -.618E-01 0.622E+00   0.429E+00 -.886E-01 0.497E-01
   -.177E+01 0.916E+00 0.752E+03   0.168E+01 -.796E+00 -.748E+03   -.385E-01 -.434E-01 -.512E+00   0.145E+00 -.830E-01 -.359E+01
   -.273E+02 0.216E+01 -.171E+04   0.273E+02 -.624E+00 0.170E+04   -.732E+00 -.110E+01 0.455E+01   0.733E+00 -.420E+00 0.151E+01
   -.257E-01 -.355E+00 0.192E+04   0.209E+00 0.214E+00 -.192E+04   0.393E-01 0.432E-01 -.352E+01   -.223E+00 0.114E+00 -.316E+01
   0.170E+01 -.549E+01 -.450E+03   -.179E+01 0.507E+01 0.449E+03   0.530E-01 0.196E+00 0.644E+00   0.453E-01 0.198E+00 0.659E-01
   0.610E-01 0.151E+00 0.754E+03   0.220E+00 -.346E+00 -.750E+03   -.341E-01 -.296E-01 -.401E+00   -.234E+00 0.175E+00 -.369E+01
   0.102E+03 0.477E+02 -.166E+04   -.104E+03 -.486E+02 0.165E+04   0.163E+01 0.119E+01 0.273E+01   -.354E+00 -.219E+00 0.151E+01
   0.371E+00 -.277E+00 0.192E+04   -.126E+00 0.154E+00 -.192E+04   -.460E-01 0.270E-01 -.348E+01   -.201E+00 0.980E-01 -.320E+01
   0.336E+01 -.935E+01 -.437E+03   -.261E+01 0.885E+01 0.437E+03   -.414E+00 0.345E-01 0.712E+00   -.359E+00 0.458E+00 -.140E-01
   -.147E+00 0.209E+01 0.753E+03   0.307E+00 -.232E+01 -.749E+03   0.700E-01 0.303E-01 -.400E+00   -.167E+00 0.130E+00 -.376E+01
   -.646E+02 -.443E+02 -.160E+04   0.657E+02 0.450E+02 0.159E+04   -.739E+00 -.936E+00 0.310E+01   -.323E+00 0.285E+00 0.147E+01
   0.710E-01 -.284E+00 0.192E+04   -.256E+00 0.137E+00 -.192E+04   0.250E-01 0.421E-01 -.349E+01   0.154E+00 0.109E+00 -.327E+01
   -.132E+01 -.683E+01 -.445E+03   0.125E+01 0.611E+01 0.444E+03   0.241E-01 0.256E+00 0.631E+00   0.491E-01 0.457E+00 0.257E-01
   0.114E+01 0.823E+00 0.756E+03   -.126E+01 -.927E+00 -.752E+03   -.768E-01 -.558E-01 -.437E+00   0.171E+00 0.142E+00 -.383E+01
   0.384E+02 0.273E+02 -.166E+04   -.394E+02 -.280E+02 0.166E+04   0.551E+00 0.384E+00 0.411E+01   0.359E+00 0.262E+00 0.159E+01
   -.435E+00 -.311E+00 0.193E+04   0.172E+00 0.124E+00 -.192E+04   -.167E-01 -.118E-01 -.341E+01   0.276E+00 0.196E+00 -.323E+01
   -.482E+01 -.342E+01 -.439E+03   0.466E+01 0.330E+01 0.438E+03   -.114E+00 -.802E-01 0.109E+01   0.264E+00 0.195E+00 -.892E-01
   -.198E+01 0.182E+01 0.753E+03   0.177E+01 -.211E+01 -.750E+03   0.441E-01 0.460E-01 -.445E+00   0.220E+00 0.179E+00 -.378E+01
   -.797E+02 0.632E+02 -.168E+04   0.807E+02 -.644E+02 0.167E+04   -.136E+01 0.135E+01 0.256E+01   0.374E+00 -.171E+00 0.152E+01
   0.300E+00 0.198E+00 0.192E+04   0.518E-01 0.586E-01 -.192E+04   -.686E-01 -.485E-01 -.354E+01   -.267E+00 -.197E+00 -.311E+01
   0.411E+00 0.194E+00 -.465E+03   -.345E+00 -.133E+00 0.465E+03   -.211E+00 -.149E+00 -.577E-01   0.139E+00 0.842E-01 0.431E+00
   0.165E+01 -.199E+01 0.751E+03   -.143E+01 0.187E+01 -.748E+03   0.272E-01 0.535E-01 -.360E+00   -.281E+00 0.114E+00 -.350E+01
   0.253E+02 -.118E+03 -.168E+04   -.259E+02 0.119E+03 0.168E+04   0.656E+00 -.183E+01 0.249E+01   -.872E-01 0.740E+00 0.134E+01
   0.196E+00 -.728E-01 0.192E+04   -.188E+00 0.707E-01 -.192E+04   0.180E-01 0.132E-01 -.350E+01   -.162E-01 -.777E-02 -.322E+01
   0.222E+01 -.303E+01 -.458E+03   -.220E+01 0.294E+01 0.456E+03   0.257E+00 -.157E+00 0.648E+00   -.264E+00 0.239E+00 0.585E+00
   0.209E+00 -.196E+01 0.752E+03   -.121E+00 0.185E+01 -.748E+03   -.548E-01 -.220E-01 -.513E+00   -.347E-01 0.149E+00 -.357E+01
   -.725E+01 -.265E+02 -.171E+04   0.870E+01 0.260E+02 0.170E+04   -.128E+01 -.319E+00 0.455E+01   -.160E+00 0.837E+00 0.148E+01
   -.145E+00 -.734E-01 0.192E+04   -.128E+00 0.159E+00 -.192E+04   -.201E-02 -.304E-01 -.359E+01   0.262E+00 -.546E-01 -.325E+01
   0.452E+01 0.258E+01 -.456E+03   -.426E+01 -.256E+01 0.456E+03   -.210E+00 -.202E+00 -.178E+00   -.724E-01 0.153E+00 0.320E+00
   0.101E+01 -.248E+01 0.753E+03   -.134E+01 0.239E+01 -.750E+03   0.589E-01 0.256E-01 -.445E+00   0.226E+00 0.140E+00 -.377E+01
   0.329E+02 -.962E+02 -.168E+04   -.337E+02 0.975E+02 0.167E+04   0.820E+00 -.174E+01 0.256E+01   -.379E-01 0.422E+00 0.152E+01
   -.343E+00 0.816E-01 0.192E+04   0.269E+00 0.149E+00 -.192E+04   0.545E-01 0.225E-01 -.352E+01   0.343E-01 -.259E+00 -.317E+01
   -.459E+01 0.325E+01 -.450E+03   0.417E+01 -.319E+01 0.449E+03   0.199E+00 -.175E-01 0.640E+00   0.201E+00 -.288E-01 0.909E-01
   -.220E+01 -.161E+01 0.752E+03   0.215E+01 0.159E+01 -.748E+03   -.267E-02 -.210E-02 -.553E+00   0.733E-01 0.429E-01 -.374E+01
   -.116E+02 -.823E+01 -.172E+04   0.130E+02 0.920E+01 0.171E+04   -.168E+01 -.119E+01 0.503E+01   0.327E+00 0.240E+00 0.139E+01
   0.785E+01 0.552E+01 -.171E+04   -.617E+01 -.432E+01 0.173E+04   -.135E+01 -.949E+00 -.249E+02   -.326E+00 -.250E+00 0.486E+00
   -.383E+02 0.338E+02 -.170E+04   0.388E+02 -.320E+02 0.172E+04   -.574E+00 -.120E+01 -.253E+02   0.268E-01 -.539E+00 0.856E+00
   -.236E+02 -.167E+02 -.170E+04   0.252E+02 0.178E+02 0.173E+04   -.158E+01 -.112E+01 -.247E+02   -.132E-01 -.585E-02 0.924E+00
   0.190E+02 -.473E+02 -.170E+04   -.172E+02 0.472E+02 0.173E+04   -.134E+01 -.139E+00 -.253E+02   -.480E+00 0.209E+00 0.863E+00
   -.111E+02 -.788E+01 -.165E+04   0.148E+02 0.105E+02 0.162E+04   -.335E+01 -.243E+01 0.209E+02   -.335E+00 -.239E+00 0.122E+01
   0.377E+01 0.278E+01 -.341E+03   -.416E+01 -.307E+01 0.349E+03   0.410E+00 0.303E+00 -.820E+01   -.273E-01 -.198E-01 0.176E+00
   0.120E+02 0.858E+01 0.168E+03   -.169E-13 -.189E-12 0.352E-11   -.111E+02 -.787E+01 -.893E+02   -.957E+00 -.723E+00 -.783E+02

 POSITION                                       TOTAL-FORCE (eV/Angst)
      1.40594      1.52230      2.00000         0.006547      0.008239      0.334551
      1.40558      1.50247      6.00700        -0.001754      0.010121     -0.039915
      2.23340      0.35210      4.02685        -0.023705     -0.017822     -0.337184
      2.14182      0.28647      8.02430        -0.014247     -0.009987      0.012920
      3.88832      1.52230      2.00000        -0.005337     -0.003666      0.316923
      3.89013      1.52301      6.00104        -0.007283     -0.003510     -0.037653
      4.71578      0.35210      4.02685         0.038748     -0.045765     -0.280222
      4.68098      0.33341      8.00008         0.048480     -0.021333     -0.041337
      6.37069      1.52230      2.00000         0.012506      0.014363      0.333498
      6.37075      1.51903      6.01932         0.013039     -0.012301     -0.003576
      7.19815      0.35210      4.02685        -0.040524      0.028557     -0.311310
      7.11385      0.27015      7.98453         0.034030     -0.008476      0.005315
      8.85307      1.52230      2.00000         0.000678     -0.002372      0.350161
      8.85654      1.52351      6.00614        -0.008679     -0.015122     -0.016333
      9.68053      0.35210      4.02685         0.032650     -0.048763     -0.197336
      9.65391      0.30617      8.00380         0.013046     -0.007538     -0.010713
      2.23340      3.86271      2.00000        -0.004195     -0.012697      0.377560
      2.24098      3.85404      6.01434        -0.032602     -0.014714     -0.029800
      3.06086      2.69251      4.02685        -0.029046      0.049963     -0.279488
      3.03315      2.66496      8.00036        -0.009095      0.055591     -0.044235
      4.71578      3.86271      2.00000         0.017660      0.006894      0.333138
      4.71331      3.86341      6.01883        -0.010705      0.015511      0.000882
      5.54324      2.69251      4.02685         0.003783      0.000132     -0.272231
      5.51793      2.67410      7.97118         0.025823      0.015756     -0.002362
      7.19815      3.86271      2.00000         0.009739      0.006470      0.358579
      7.20597      3.86794      6.04389        -0.015883     -0.011623     -0.020164
      8.02561      2.69251      4.02685        -0.042051      0.080838     -0.204156
      8.05658      2.64822      8.02436         0.025550      0.010316     -0.043576
      9.68053      3.86271      2.00000         0.001919     -0.006898      0.336804
      9.67560      3.86638      6.00438        -0.007026      0.007620     -0.010052
     10.50799      2.69251      4.02685         0.010992     -0.006389     -0.354025
     10.52085      2.69286      7.90106        -0.010496      0.017289     -0.012176
      3.06086      6.20311      2.00000        -0.000492      0.015944      0.301701
      3.05858      6.19345      6.00453         0.007253     -0.024724     -0.004826
      3.88832      5.03291      4.02685         0.013851     -0.048652     -0.312733
      3.78331      4.98028      7.98393        -0.009443      0.023985     -0.003132
      5.54324      6.20311      2.00000        -0.001868      0.001687      0.349632
      5.54551      6.20544      6.00584        -0.018446     -0.002811     -0.014633
      6.37069      5.03291      4.02685         0.063363     -0.068441     -0.205569
      6.33862      5.07570      8.02429         0.023042      0.022182     -0.042449
      8.02561      6.20311      2.00000        -0.005579      0.003900      0.336698
      8.02714      6.19677      6.00453         0.007539     -0.008362     -0.013077
      8.85307      5.03291      4.02685        -0.023548     -0.017420     -0.331606
      8.82436      5.01325      7.99420        -0.039403     -0.031601     -0.010598
     10.50799      6.20311      2.00000        -0.003274     -0.002345      0.306632
     10.50726      6.20237      5.99084        -0.007518     -0.003907     -0.023614
     11.33544      5.03291      4.02685         0.051706     -0.070782     -0.282136
     11.32435      4.99133      7.98088         0.020453     -0.018751     -0.007769
      3.88832      8.54352      2.00000         0.015725      0.010948      0.328173
      3.88540      8.54114      6.02207        -0.006761     -0.004781     -0.044450
      4.71578      7.37332      4.02685        -0.034985      0.046544     -0.198405
      4.66389      7.36201      8.00406        -0.006751      0.024480     -0.015606
      6.37069      8.54352      2.00000         0.009767      0.003554      0.334439
      6.35200      8.54903      6.00681         0.007366     -0.002482     -0.038056
      7.19815      7.37332      4.02685        -0.001661      0.011158     -0.355413
      7.20151      7.38422      7.90147         0.019513     -0.015177     -0.014764
      8.85307      8.54352      2.00000        -0.013155      0.000329      0.377734
      8.84732      8.55253      6.01438        -0.022685     -0.020440     -0.032445
      9.68053      7.37332      4.02685        -0.048734      0.071029     -0.282595
      9.63713      7.37672      7.98065        -0.008868      0.023386     -0.005125
     11.33544      8.54352      2.00000         0.014809     -0.005950      0.302054
     11.32573      8.54440      6.00479        -0.020665      0.015160     -0.008083
     12.16290      7.37332      4.02685         0.025765      0.018292     -0.318517
     12.15481      7.36766      7.92649         0.034204      0.023575     -0.015737
      3.41337      1.18538      9.08713         0.002910      0.003260     -0.026331
      8.36798      1.10201      9.08495        -0.039920      0.008304     -0.076202
     10.14790      5.94865      9.06451        -0.036839     -0.025417     -0.069574
      4.98336      5.88362      9.08445         0.001624     -0.034671     -0.064169
      6.75642      3.54957      9.32146         0.004359      0.002806      0.000821
      6.70561      3.51209     10.29413        -0.005220     -0.002485     -0.032758
    total drift:                               -0.004089     -0.012610      0.429374

  FREE ENERGIE OF THE ION-ELECTRON SYSTEM (eV)
  free  energy   TOTEN  =      -556.54721975 eV

  energy  without entropy=     -556.54721975  energy(sigma->0) =     -556.54721975

 stress matrix after NEB project (eV)
    -21.13660      2.87079      0.22618
      2.87079    -23.15702      0.19237
      0.22618      0.19237      7.40932
  FORCES: max atom, RMS     0.086426    0.030406
  FORCE total and by dimension    0.254394    0.076202
  Stress total and by dimension   32.473999   23.157017

 total charge

[...]

 magnetization (x)

# of ion       s       p       d       tot
    1       -0.005  -0.008   2.699   2.686
    2       -0.016  -0.051   2.452   2.385
    3       -0.015  -0.054   2.497   2.429
    4       -0.005  -0.019   2.228   2.204
    5       -0.002  -0.009   2.720   2.709
    6       -0.018  -0.056   2.534   2.460
    7       -0.016  -0.057   2.460   2.387
    8       -0.001  -0.011   2.311   2.299
    9       -0.005  -0.008   2.706   2.693
   10       -0.013  -0.052   2.492   2.427
   11       -0.015  -0.055   2.523   2.453
   12       -0.006  -0.022   2.095   2.067
   13       -0.004  -0.010   2.718   2.704
   14       -0.015  -0.054   2.467   2.398
   15       -0.017  -0.058   2.445   2.370
   16       -0.000  -0.009   2.252   2.243
   17       -0.005  -0.008   2.697   2.684
   18       -0.010  -0.055   2.336   2.271
   19       -0.016  -0.057   2.460   2.386
   20       -0.001  -0.010   2.312   2.300
   21       -0.005  -0.008   2.706   2.693
   22       -0.013  -0.052   2.491   2.426
   23       -0.015  -0.056   2.488   2.417
   24       -0.008  -0.007   2.869   2.854
   25       -0.004  -0.008   2.693   2.680
   26       -0.010  -0.055   2.416   2.351
   27       -0.017  -0.057   2.475   2.401
   28       -0.004  -0.010   2.223   2.208
   29       -0.005  -0.008   2.707   2.694
   30       -0.015  -0.052   2.445   2.378
   31       -0.014  -0.055   2.491   2.422
   32       -0.006  -0.013   2.765   2.746
   33       -0.005  -0.007   2.712   2.700
   34       -0.015  -0.052   2.455   2.388
   35       -0.015  -0.055   2.523   2.453
   36       -0.006  -0.022   2.088   2.059
   37       -0.004  -0.010   2.718   2.704
   38       -0.015  -0.054   2.467   2.398
   39       -0.017  -0.057   2.475   2.401
   40       -0.004  -0.010   2.223   2.208
   41       -0.005  -0.008   2.707   2.694
   42       -0.015  -0.052   2.445   2.378
   43       -0.015  -0.055   2.511   2.441
   44       -0.005  -0.020   2.443   2.418
   45       -0.002  -0.007   2.726   2.717
   46       -0.016  -0.056   2.527   2.455
   47       -0.017  -0.057   2.458   2.384
   48       -0.002  -0.014   2.244   2.229
   49       -0.003  -0.008   2.712   2.700
   50       -0.011  -0.054   2.318   2.253
   51       -0.017  -0.058   2.445   2.370
   52       -0.000  -0.009   2.252   2.242
   53       -0.005  -0.008   2.699   2.686
   54       -0.016  -0.051   2.452   2.385
   55       -0.014  -0.055   2.491   2.421
   56       -0.006  -0.013   2.765   2.746
   57       -0.005  -0.008   2.697   2.684
   58       -0.010  -0.055   2.336   2.271
   59       -0.017  -0.057   2.458   2.385
   60       -0.002  -0.014   2.243   2.228
   61       -0.005  -0.007   2.712   2.700
   62       -0.015  -0.052   2.455   2.388
   63       -0.015  -0.055   2.491   2.422
   64       -0.005  -0.010   2.787   2.771
   65        0.003   0.023   0.000   0.026
   66        0.002  -0.006   0.000  -0.003
   67        0.003   0.020   0.000   0.024
   68        0.002  -0.006   0.000  -0.003
   69        0.010   0.061   0.000   0.071
   70        0.006   0.001   0.000   0.007
tot         -0.576  -2.003 160.204 157.625

 BZINTS: Fermi energy: -0.496444;543.000000 electrons
         Band energy:***********;  BLOECHL correction: -0.031343