 vasp.5.4.4.18Apr17-6-g9f103f2a35 (build Dec 15 2018 21:27:11) complex

 executed on             LinuxIFC date 2022.02.17  20:00:44

 INCAR:
 POTCAR:    PAW_PBE Ni 02Aug2007
 POTCAR:    PAW_PBE O 08Apr2002

 POTCAR:    PAW_PBE Ni 02Aug2007
   VRHFIN =Ni:

   TITEL  = PAW_PBE Ni 02Aug2007
   POMASS =   58.690; ZVAL   =   10.000    mass and valenz
   ENMAX  =  269.532; ENMIN  =  202.149 eV

 POTCAR:    PAW_PBE O 08Apr2002
   VRHFIN =O: s2p4

   TITEL  = PAW_PBE O 08Apr2002
   POMASS =   16.000; ZVAL   =    6.000    mass and valenz
   ENMAX  =  400.000; ENMIN  =  300.000 eV

 Optimization of the real space projectors (new method)

 maximal supplied QI-value         = 16.25
 optimisation between [QCUT,QGAM] = [ 11.54, 23.24] = [ 37.28,151.24] Ry
 Optimized for a Real-space Cutoff    1.45 Angstroem

   l    n(q)    QCUT    max X(q) W(low)/X(q) W(high)/X(q)  e(spline)
   2      9    11.539    60.317    0.19E-03    0.47E-04    0.16E-06
   2      9    11.539    55.921    0.19E-03    0.48E-04    0.16E-06
   0     10    11.539    51.690    0.80E-04    0.50E-04    0.24E-06
   0     10    11.539    30.015    0.73E-04    0.45E-04    0.22E-06
   1     10    11.539    18.849    0.87E-04    0.16E-03    0.71E-07
   1     10    11.539    14.624    0.73E-04    0.13E-03    0.64E-07
 Optimization of the real space projectors (new method)

 maximal supplied QI-value         = 24.76
 optimisation between [QCUT,QGAM] = [ 11.64, 23.27] = [ 37.91,151.63] Ry
 Optimized for a Real-space Cutoff    1.14 Angstroem

   l    n(q)    QCUT    max X(q) W(low)/X(q) W(high)/X(q)  e(spline)
   0      8    11.635    20.381    0.10E-03    0.33E-03    0.24E-06
   0      8    11.635    15.268    0.11E-03    0.35E-03    0.26E-06
   1      7    11.635     5.964    0.24E-03    0.31E-03    0.30E-06
   1      7    11.635     5.382    0.22E-03    0.25E-03    0.26E-06
  PAW_PBE Ni 02Aug2007                  :
  PAW_PBE O 08Apr2002                   :

 POSCAR: POSCAR
  positions in direct lattice
  velocities in cartesian coordinates
 exchange correlation table for  LEXCH =        8
   RHO(1)=    0.500       N(1)  =     2000
   RHO(2)=  100.500       N(2)  =     4000

 VTST: version 3.2, (02/03/18)

 CHAIN: initializing optimizer

 OPT: Using VASP Conjugate-Gradient optimizer
 CHAIN: Read ICHAIN            0

 POSCAR: POSCAR
  positions in direct lattice
  velocities in cartesian coordinates

 ion  position               nearest neighbor table
   1  0.113  0.226  0.095-  15 2.49  19 2.49   3 2.49   5 2.49  13 2.49  17 2.49  21 2.49  49 2.49
                            61 2.49
   2  0.111  0.228  0.383-  65 1.83  14 2.44  18 2.44  20 2.47  22 2.49  62 2.50  24 2.52   4 2.52
                            50 2.55   6 2.55
   3  0.196  0.142  0.191-  24 2.44   8 2.44   4 2.44   5 2.49  49 2.49   1 2.49   7 2.49  15 2.49
                            19 2.49  23 2.49  51 2.49  63 2.49
   4  0.030  0.059  0.285-  62 2.42   3 2.44  15 2.44  63 2.44  24 2.48   8 2.48  20 2.49  52 2.49
                            16 2.50  64 2.50   2 2.52  50 2.52
   5  0.363  0.226  0.095-   3 2.49  23 2.49   7 2.49   9 2.49   1 2.49  21 2.49  25 2.49  49 2.49
                            53 2.49
   6  0.366  0.227  0.383-  65 1.83  10 2.44  26 2.44  28 2.47  54 2.49  22 2.50   8 2.52  24 2.52
                            50 2.55   2 2.55
   7  0.446  0.142  0.191-   8 2.45  12 2.45  28 2.47   9 2.49  53 2.49   5 2.49  11 2.49   3 2.49
                            23 2.49  51 2.49  27 2.49  55 2.49
   8  0.279  0.059  0.285-  54 2.42   3 2.44  51 2.44   7 2.45  24 2.48   4 2.48  52 2.49  28 2.49
                            56 2.50  12 2.50   6 2.52  50 2.52
   9  0.613  0.226  0.095-   7 2.49  27 2.49  11 2.49  13 2.49   5 2.49  25 2.49  29 2.49  53 2.49
                            57 2.49
  10  0.611  0.227  0.383-  68 1.83   6 2.44  26 2.44  28 2.47  54 2.50  30 2.50  12 2.52  32 2.52
                            58 2.55  14 2.55
  11  0.696  0.142  0.191-  32 2.44  16 2.44  12 2.44  13 2.49  57 2.49   9 2.49  15 2.49   7 2.49
                            27 2.49  55 2.49  31 2.49  59 2.49
  12  0.530  0.059  0.285-  54 2.42  11 2.44  55 2.44   7 2.45  16 2.48  32 2.48  60 2.49  28 2.49
                            56 2.50   8 2.50  10 2.52  58 2.52
  13  0.863  0.226  0.095-  11 2.49  31 2.49  15 2.49   9 2.49   1 2.49  29 2.49  17 2.49  57 2.49
                            61 2.49
  14  0.867  0.228  0.383-  68 1.83   2 2.44  18 2.44  20 2.47  30 2.49  62 2.50  16 2.52  32 2.52
                            58 2.55  10 2.55
  15  0.946  0.142  0.191-   4 2.44  16 2.45  20 2.47   1 2.49  61 2.49  13 2.49   3 2.49  11 2.49
                            31 2.49  59 2.49  19 2.49  63 2.49
  16  0.779  0.059  0.285-  62 2.42  11 2.44  59 2.44  15 2.45  12 2.48  32 2.48  60 2.49  20 2.49
                             4 2.50  64 2.50  14 2.52  58 2.52
  17  0.113  0.476  0.095-  31 2.49  35 2.49  19 2.49  21 2.49  29 2.49  13 2.49  33 2.49   1 2.49
                            37 2.49
  18  0.111  0.472  0.383-  67 1.83  14 2.44   2 2.44  20 2.47  22 2.49  30 2.50  40 2.52  36 2.52
                            38 2.55  34 2.55
  19  0.196  0.392  0.191-  40 2.44  24 2.45  20 2.47  21 2.49   1 2.49  17 2.49  31 2.49  23 2.49
                            15 2.49  35 2.49  39 2.49   3 2.49
  20  0.030  0.309  0.286-  14 2.47   2 2.47  18 2.47  19 2.47  15 2.47  31 2.47  40 2.49   4 2.49
                            36 2.49  24 2.49  32 2.49  16 2.49
  21  0.363  0.476  0.095-  19 2.49  39 2.49  23 2.49  25 2.49  17 2.49   5 2.49  37 2.49   1 2.49
                            41 2.49
  22  0.363  0.476  0.377-  24 2.42  44 2.42  40 2.42   2 2.49  18 2.49  26 2.50  42 2.50   6 2.50
                            38 2.50
  23  0.446  0.392  0.191-  24 2.44  44 2.44  28 2.47  25 2.49   5 2.49  21 2.49  19 2.49  27 2.49
                             7 2.49  39 2.49  43 2.49   3 2.49
  24  0.279  0.308  0.285-  22 2.42   3 2.44  23 2.44  19 2.45   8 2.48   4 2.48  28 2.49  20 2.49
                            44 2.50  40 2.50   2 2.52   6 2.52
  25  0.613  0.476  0.095-  23 2.49  43 2.49  27 2.49  29 2.49  21 2.49   9 2.49  41 2.49   5 2.49
                            45 2.49
  26  0.611  0.472  0.383-  66 1.83  10 2.44   6 2.44  28 2.47  22 2.50  30 2.50  44 2.52  48 2.53
                            42 2.55  46 2.55
  27  0.696  0.392  0.191-  48 2.44  32 2.45  28 2.47  29 2.49   9 2.49  25 2.49  23 2.49  31 2.49
                            11 2.49  43 2.49  47 2.49   7 2.49
  28  0.529  0.309  0.286-  10 2.47   6 2.47  26 2.47   7 2.47  23 2.47  27 2.47  24 2.49   8 2.49
                            48 2.49  12 2.49  44 2.49  32 2.49
  29  0.863  0.476  0.095-  27 2.49  47 2.49  31 2.49  25 2.49  17 2.49  13 2.49  33 2.49  45 2.49
                             9 2.49
  30  0.863  0.476  0.377-  32 2.42  36 2.42  48 2.42  14 2.49  18 2.50  46 2.50  34 2.50  26 2.50
                            10 2.50
  31  0.946  0.392  0.191-  36 2.44  32 2.45  20 2.47  17 2.49  13 2.49  29 2.49  27 2.49  19 2.49
                            15 2.49  35 2.49  11 2.49  47 2.49
  32  0.779  0.308  0.285-  30 2.42  11 2.44  31 2.45  27 2.45  16 2.48  12 2.48  28 2.49  20 2.49
                            48 2.50  36 2.50  14 2.52  10 2.52
  33  0.113  0.726  0.095-  47 2.49  51 2.49  35 2.49  37 2.49  45 2.49  29 2.49  49 2.49  17 2.49
                            53 2.49
  34  0.111  0.727  0.383-  67 1.83  46 2.44  50 2.44  52 2.47  54 2.49  30 2.50  36 2.52  56 2.52
                            18 2.55  38 2.55
  35  0.196  0.642  0.191-  56 2.44  40 2.44  36 2.44  37 2.49  17 2.49  33 2.49  47 2.49  39 2.49
                            31 2.49  51 2.49  55 2.49  19 2.49
  36  0.030  0.559  0.285-  30 2.42  35 2.44  31 2.44  47 2.44  56 2.48  40 2.48  20 2.49  52 2.49
                            48 2.50  32 2.50  34 2.52  18 2.52
  37  0.363  0.726  0.095-  35 2.49  55 2.49  39 2.49  41 2.49  33 2.49  21 2.49  53 2.49  17 2.49
                            57 2.49
  38  0.367  0.727  0.383-  67 1.83  42 2.44  58 2.44  60 2.47  54 2.49  22 2.50  40 2.52  56 2.52
                            18 2.55  34 2.55
  39  0.446  0.642  0.191-  40 2.44  44 2.45  60 2.47  41 2.49  21 2.49  37 2.49  35 2.49  43 2.49
                            23 2.49  55 2.49  59 2.49  19 2.49
  40  0.279  0.559  0.285-  22 2.42  35 2.44  39 2.44  19 2.44  56 2.48  36 2.48  60 2.49  20 2.49
                            44 2.50  24 2.50  18 2.52  38 2.52
  41  0.613  0.726  0.095-  39 2.49  59 2.49  43 2.49  45 2.49  37 2.49  25 2.49  57 2.49  21 2.49
                            61 2.49
  42  0.611  0.727  0.383-  66 1.83  38 2.44  58 2.44  60 2.47  22 2.50  62 2.50  44 2.52  64 2.52
                            26 2.55  46 2.55
  43  0.696  0.642  0.191-  64 2.44  48 2.44  44 2.44  45 2.49  25 2.49  41 2.49  39 2.49  47 2.49
                            27 2.49  59 2.49  63 2.49  23 2.49
  44  0.530  0.559  0.285-  22 2.42  43 2.44  23 2.44  39 2.45  48 2.48  64 2.48  28 2.49  60 2.49
                            24 2.50  40 2.50  42 2.52  26 2.52
  45  0.863  0.726  0.095-  43 2.49  63 2.49  47 2.49  41 2.49  33 2.49  29 2.49  49 2.49  61 2.49
                            25 2.49
  46  0.867  0.727  0.383-  66 1.83  34 2.44  50 2.44  52 2.47  62 2.49  30 2.50  48 2.52  64 2.52
                            26 2.55  42 2.55
  47  0.946  0.642  0.191-  36 2.44  48 2.45  52 2.47  33 2.49  29 2.49  45 2.49  43 2.49  35 2.49
                            31 2.49  51 2.49  27 2.49  63 2.49
  48  0.779  0.559  0.285-  30 2.42  43 2.44  27 2.44  47 2.45  44 2.48  64 2.48  28 2.49  52 2.49
                            32 2.50  36 2.50  46 2.52  26 2.53
  49  0.113  0.976  0.095-  63 2.49   3 2.49  51 2.49  61 2.49  53 2.49   1 2.49   5 2.49  33 2.49
                            45 2.49
  50  0.111  0.972  0.383-  65 1.83  46 2.44  34 2.44  52 2.47  62 2.49  54 2.50   8 2.52   4 2.52
                             6 2.55   2 2.55
  51  0.196  0.892  0.191-   8 2.44  56 2.44  52 2.47  53 2.49  33 2.49  49 2.49  55 2.49  63 2.49
                            35 2.49  47 2.49   3 2.49   7 2.49
  52  0.029  0.809  0.286-  46 2.47  34 2.47  50 2.47  47 2.47  63 2.47  51 2.47   8 2.49  36 2.49
                             4 2.49  64 2.49  56 2.49  48 2.49
  53  0.363  0.976  0.095-  51 2.49   7 2.49  55 2.49  49 2.49  57 2.49   5 2.49   9 2.49  33 2.49
                            37 2.49
  54  0.363  0.976  0.377-  56 2.42   8 2.42  12 2.42  34 2.49  38 2.49   6 2.49  50 2.50  10 2.50
                            58 2.50
  55  0.446  0.892  0.191-  12 2.44  56 2.44  60 2.47  57 2.49  37 2.49  53 2.49  59 2.49  51 2.49
                            11 2.49  39 2.49   7 2.49  35 2.49
  56  0.279  0.808  0.285-  54 2.42  35 2.44  55 2.44  51 2.44  40 2.48  36 2.48  60 2.49  52 2.49
                             8 2.50  12 2.50  34 2.52  38 2.52
  57  0.613  0.976  0.095-  55 2.49  11 2.49  59 2.49  53 2.49  61 2.49   9 2.49  13 2.49  37 2.49
                            41 2.49
  58  0.611  0.972  0.383-  68 1.83  42 2.44  38 2.44  60 2.47  62 2.50  54 2.50  12 2.52  16 2.52
                            10 2.55  14 2.55
[...]
   0.413E+01 -.227E+01 -.864E+03   -.406E+01 0.225E+01 0.863E+03   -.519E-01 0.305E-01 0.441E+00   -.979E-02 -.132E-01 0.214E-01
   0.190E-01 0.199E+00 0.319E+04   -.485E-02 -.242E+00 -.319E+04   -.625E-04 0.208E-01 -.142E+01   -.141E-01 -.311E-02 0.714E-02
   0.685E-01 0.112E+03 -.291E+04   -.113E+00 -.114E+03 0.291E+04   -.113E-02 0.195E+01 0.487E+00   0.434E-01 0.179E-01 0.786E-02
   0.359E+01 0.203E+01 0.118E+04   -.366E+01 -.208E+01 -.118E+04   0.534E-01 0.308E-01 -.173E+00   0.158E-02 0.837E-02 0.415E-01
   0.115E+00 0.303E-01 -.890E+03   -.141E+00 -.517E-01 0.891E+03   -.702E-03 0.744E-04 -.117E+01   0.254E-01 0.200E-01 0.238E-01
   -.126E-01 -.127E-01 0.319E+04   0.138E-01 0.131E-01 -.319E+04   -.256E-04 -.352E-03 -.124E+01   -.115E-02 -.550E-03 0.107E-01
   -.347E-01 -.173E+00 -.292E+04   0.302E-01 0.165E+00 0.292E+04   0.554E-03 -.135E-02 0.304E+01   0.439E-02 0.110E-01 -.283E-02
   -.369E+01 0.201E+01 0.118E+04   0.377E+01 -.206E+01 -.118E+04   -.531E-01 0.307E-01 -.173E+00   -.477E-02 0.989E-02 0.465E-01
   -.733E-01 0.463E+01 -.863E+03   0.654E-01 -.458E+01 0.863E+03   -.495E-03 -.601E-01 0.441E+00   0.763E-02 0.262E-01 0.476E-01
   -.196E-01 0.184E+00 0.319E+04   0.542E-02 -.239E+00 -.319E+04   0.104E-03 0.206E-01 -.142E+01   0.141E-01 0.950E-02 0.508E-02
   -.800E-01 0.113E+03 -.291E+04   0.125E+00 -.115E+03 0.291E+04   0.415E-03 0.195E+01 0.489E+00   -.434E-01 -.172E-02 0.989E-02
   0.363E+01 0.207E+01 0.118E+04   -.370E+01 -.213E+01 -.118E+04   0.531E-01 0.307E-01 -.173E+00   -.194E-02 0.121E-01 0.172E-01
   -.924E-01 -.120E+00 -.890E+03   0.118E+00 0.116E+00 0.891E+03   0.457E-03 0.140E-02 -.117E+01   -.254E-01 0.459E-02 0.408E-01
   0.125E-01 -.439E-02 0.319E+04   -.136E-01 -.300E-02 -.319E+04   -.550E-05 -.346E-03 -.124E+01   0.115E-02 0.727E-02 0.415E-02
   0.364E-01 -.755E-01 -.292E+04   -.328E-01 0.757E-01 0.292E+04   0.313E-03 -.103E-02 0.305E+01   -.435E-02 0.188E-02 0.111E-01
   -.355E+01 0.209E+01 0.118E+04   0.362E+01 -.215E+01 -.118E+04   -.533E-01 0.308E-01 -.173E+00   0.512E-02 0.106E-01 0.122E-01
   0.793E-01 0.468E+01 -.864E+03   -.720E-01 -.460E+01 0.863E+03   0.283E-03 -.601E-01 0.441E+00   -.755E-02 -.265E-02 0.196E-01
   0.193E+00 -.873E-01 0.319E+04   -.218E+00 0.118E+00 -.319E+04   0.182E-01 -.111E-01 -.142E+01   -.155E-01 -.742E-02 0.990E-02
   0.974E+02 -.561E+02 -.291E+04   -.991E+02 0.570E+02 0.291E+04   0.169E+01 -.976E+00 0.487E+00   0.316E-01 0.124E-01 0.776E-02
   -.836E-02 0.301E-01 0.118E+04   0.859E-02 -.320E-01 -.118E+04   -.114E-03 0.475E-04 -.233E+00   -.721E-04 0.907E-03 0.390E-01
   -.401E+01 -.234E+01 -.864E+03   0.393E+01 0.228E+01 0.863E+03   0.524E-01 0.302E-01 0.441E+00   0.248E-01 0.168E-01 0.150E-01
   -.181E+00 -.102E+00 0.319E+04   0.226E+00 0.129E+00 -.319E+04   -.182E-01 -.111E-01 -.142E+01   -.531E-02 -.322E-02 0.102E-01
   -.975E+02 -.562E+02 -.291E+04   0.991E+02 0.571E+02 0.291E+04   -.169E+01 -.976E+00 0.487E+00   0.131E-01 -.119E-01 0.528E-03
   -.788E-01 -.419E+01 0.118E+04   0.799E-01 0.428E+01 -.118E+04   0.184E-03 -.611E-01 -.173E+00   -.338E-03 -.319E-02 0.545E-01
   0.399E+01 -.241E+01 -.864E+03   -.395E+01 0.236E+01 0.863E+03   -.520E-01 0.297E-01 0.441E+00   0.212E-01 0.671E-02 0.472E-01
   0.153E+00 -.103E+00 0.319E+04   -.209E+00 0.122E+00 -.319E+04   0.182E-01 -.108E-01 -.142E+01   0.152E-01 0.371E-02 0.857E-02
   0.976E+02 -.564E+02 -.291E+04   -.992E+02 0.574E+02 0.291E+04   0.169E+01 -.977E+00 0.489E+00   -.296E-01 -.309E-01 0.610E-02
   0.347E-02 0.240E-01 0.118E+04   -.367E-02 -.276E-01 -.118E+04   0.109E-03 0.181E-03 -.233E+00   0.640E-04 0.259E-02 0.275E-01
   -.409E+01 -.240E+01 -.864E+03   0.405E+01 0.237E+01 0.864E+03   0.517E-01 0.304E-01 0.441E+00   -.244E-01 -.407E-02 0.483E-01
   -.167E+00 -.884E-01 0.319E+04   0.201E+00 0.112E+00 -.319E+04   -.182E-01 -.109E-01 -.142E+01   0.561E-02 -.492E-03 0.824E-02
   -.976E+02 -.563E+02 -.291E+04   0.992E+02 0.572E+02 0.291E+04   -.169E+01 -.977E+00 0.490E+00   -.151E-01 -.659E-02 0.133E-01
   0.776E-01 -.414E+01 0.118E+04   -.788E-01 0.422E+01 -.118E+04   -.549E-04 -.612E-01 -.173E+00   0.345E-03 0.742E-02 0.134E-01
   0.409E+01 -.232E+01 -.864E+03   -.401E+01 0.228E+01 0.863E+03   -.518E-01 0.308E-01 0.441E+00   -.216E-01 0.607E-02 0.161E-01
   0.138E-01 0.217E+00 0.319E+04   -.273E-02 -.252E+00 -.319E+04   -.169E-04 0.208E-01 -.142E+01   -.110E-01 -.117E-01 0.721E-02
   0.892E-02 0.112E+03 -.291E+04   -.337E-01 -.114E+03 0.291E+04   0.390E-03 0.195E+01 0.488E+00   0.246E-01 0.133E-01 0.115E-01
   0.362E+01 0.211E+01 0.118E+04   -.368E+01 -.214E+01 -.118E+04   0.532E-01 0.306E-01 -.173E+00   -.470E-02 -.102E-01 0.328E-01
   0.668E-01 0.986E-01 -.890E+03   -.801E-01 -.102E+00 0.891E+03   -.127E-03 0.317E-03 -.117E+01   0.134E-01 0.229E-02 0.115E-01
   -.764E-02 -.219E-02 0.319E+04   0.145E-01 0.624E-02 -.319E+04   -.506E-05 -.378E-03 -.124E+01   -.680E-02 -.413E-02 0.710E-02
   -.945E-01 -.119E+00 -.292E+04   0.884E-01 0.127E+00 0.292E+04   -.757E-03 -.254E-02 0.304E+01   0.792E-02 -.402E-02 0.411E-02
   -.368E+01 0.206E+01 0.118E+04   0.375E+01 -.209E+01 -.118E+04   -.532E-01 0.305E-01 -.173E+00   -.306E-02 -.119E-01 0.446E-01
   -.801E-01 0.469E+01 -.863E+03   0.662E-01 -.462E+01 0.863E+03   -.187E-03 -.601E-01 0.441E+00   0.142E-01 -.509E-02 0.367E-01
   -.136E-01 0.194E+00 0.319E+04   0.260E-02 -.245E+00 -.319E+04   0.254E-04 0.206E-01 -.142E+01   0.110E-01 0.503E-02 0.306E-02
   0.215E-01 0.113E+03 -.291E+04   0.265E-02 -.115E+03 0.291E+04   0.443E-03 0.195E+01 0.490E+00   -.246E-01 -.227E-01 0.137E-01
   0.363E+01 0.211E+01 0.118E+04   -.371E+01 -.214E+01 -.118E+04   0.531E-01 0.310E-01 -.173E+00   0.352E-02 -.111E-01 0.261E-01
   -.783E-01 -.201E-01 -.890E+03   0.919E-01 0.466E-01 0.891E+03   0.332E-03 0.948E-03 -.117E+01   -.134E-01 -.270E-01 0.414E-01
   0.672E-02 0.140E-01 0.319E+04   -.135E-01 -.114E-01 -.319E+04   0.120E-04 -.459E-03 -.124E+01   0.680E-02 -.270E-02 0.482E-02
   0.775E-01 -.344E-01 -.292E+04   -.702E-01 0.428E-01 0.292E+04   -.296E-03 0.153E-02 0.304E+01   -.795E-02 -.891E-02 0.112E-01
   -.356E+01 0.215E+01 0.118E+04   0.362E+01 -.219E+01 -.118E+04   -.533E-01 0.311E-01 -.173E+00   0.424E-02 -.951E-02 0.142E-01
   0.644E-01 0.471E+01 -.864E+03   -.497E-01 -.462E+01 0.863E+03   0.391E-03 -.596E-01 0.441E+00   -.143E-01 -.210E-01 0.179E-01
   0.784E-01 0.374E-01 -.231E+04   -.964E-01 -.528E-01 0.234E+04   0.768E-02 0.161E-02 -.282E+02   0.107E-01 0.129E-01 0.374E-03
   -.108E+00 -.868E-01 -.231E+04   0.137E+00 0.104E+00 0.234E+04   -.956E-02 -.813E-02 -.282E+02   -.187E-01 -.834E-02 0.177E-03
   0.110E+00 -.240E-01 -.231E+04   -.139E+00 0.237E-01 0.234E+04   0.940E-02 -.206E-02 -.282E+02   0.187E-01 0.392E-02 -.346E-02
   -.855E-01 -.920E-01 -.231E+04   0.104E+00 0.110E+00 0.234E+04   -.916E-02 -.103E-01 -.282E+02   -.106E-01 -.875E-02 0.687E-02
   0.105E-02 0.206E-01 0.118E+03   0.585E-13 -.241E-11 -.909E-11   -.155E-02 -.227E-01 -.119E+03   0.169E-04 -.636E-03 0.120E+01

 POSITION                                       TOTAL-FORCE (eV/Angst)
     -0.00000      1.94796      2.00000        -0.021734      0.012125      0.250102
     -0.02853      1.96442      8.07221         0.036680     -0.023751      0.018127
      1.24593      1.22862      4.03457         0.000036     -0.000710     -0.275421
      0.00233      0.51054      6.00853        -0.005959     -0.003990      0.009320
      2.49184      1.94796      2.00000         0.021779      0.012112      0.250081
      2.52064      1.96339      8.07274        -0.037717     -0.019758      0.016526
      3.73777      1.22862      4.03457         0.000601      0.022176     -0.244911
      2.48925      0.51018      6.00860         0.007194     -0.002731      0.009087
      4.98369      1.94796      2.00000        -0.021797      0.012089      0.250189
      4.95506      1.96337      8.07293         0.033935     -0.016371      0.012166
      6.22962      1.22862      4.03457        -0.000084     -0.000789     -0.274066
      4.98644      0.51017      6.00893        -0.007719     -0.002858      0.007255
      7.47553      1.94796      2.00000         0.021833      0.012105      0.250193
      7.50482      1.96429      8.07241        -0.034447     -0.019518      0.013409
      8.72146      1.22862      4.03457        -0.000579      0.023075     -0.245967
      7.47308      0.51049      6.00881         0.006739     -0.003860      0.007743
     -1.24593      4.10596      2.00000         0.000065     -0.025642      0.250106
     -1.24564      4.07284      8.07252        -0.001915      0.041225      0.016423
      0.00000      3.38662      4.03457        -0.019416     -0.011271     -0.246399
     -1.24567      2.66739      6.04531        -0.001433     -0.001193     -0.004456
      1.24592      4.10596      2.00000         0.000031     -0.000417      0.188976
      1.24591      4.10493      7.95911         0.000410      0.002074      0.044813
      2.49185      3.38662      4.03457         0.020873     -0.011650     -0.245687
      1.24616      2.66397      6.00845        -0.000744      0.007932      0.009476
      3.73776      4.10596      2.00000        -0.000030     -0.025658      0.250142
      3.73765      4.07179      8.07350         0.001644      0.036084      0.008407
      4.98369      3.38662      4.03457        -0.020248     -0.012205     -0.245270
      3.73779      2.66653      6.04561         0.000698      0.001880     -0.003661
      6.22961      4.10596      2.00000         0.000011     -0.000433      0.189256
      6.22974      4.10511      7.95915        -0.000419      0.001055      0.045235
      7.47554      3.38662      4.03457         0.019619     -0.011869     -0.246083
      6.22965      2.66389      6.00867        -0.000010      0.008422      0.008267
     -2.49185      6.26396      2.00000        -0.021745      0.012142      0.250118
     -2.52079      6.28029      8.07222         0.037333     -0.023220      0.018141
     -1.24592      5.54462      4.03457         0.000045     -0.000857     -0.275117
     -2.48948      4.82649      6.00860        -0.006217     -0.003751      0.008908
     -0.00000      6.26396      2.00000         0.021803      0.012096      0.250024
      0.02877      6.28016      8.07284        -0.036936     -0.021748      0.015671
      1.24593      5.54462      4.03457         0.000892      0.022875     -0.244795
     -0.00233      4.82663      6.00869         0.006342     -0.004266      0.008444
      2.49184      6.26396      2.00000        -0.021809      0.012097      0.250117
      2.46302      6.27943      8.07316         0.032401     -0.015453      0.010049
      3.73777      5.54462      4.03457        -0.000019     -0.000825     -0.273896
      2.49455      4.82619      6.00894        -0.007349     -0.002827      0.007166
      4.98369      6.26396      2.00000         0.021845      0.012143      0.250222
      5.01222      6.27972      8.07246        -0.031384     -0.017734      0.013055
      6.22962      5.54462      4.03457        -0.000832      0.022566     -0.245297
      4.98101      4.82609      6.00886         0.007535     -0.002517      0.007666
     -3.73777      8.42196      2.00000         0.000052     -0.025621      0.250090
     -3.73808      8.38848      8.07253         0.000191      0.043748      0.018518
     -2.49184      7.70262      4.03457        -0.020259     -0.012178     -0.246502
     -3.73801      6.98308      6.04544         0.000016     -0.000670     -0.005121
     -1.24593      8.42196      2.00000         0.000036     -0.000420      0.189041
     -1.24607      8.42094      7.95903         0.000969      0.001842      0.045425
      0.00000      7.70262      4.03457         0.020553     -0.011830     -0.245480
     -1.24594      6.97995      6.00845         0.000121      0.007913      0.009392
      1.24592      8.42196      2.00000        -0.000006     -0.025644      0.250094
      1.24626      8.38830      8.07339         0.000018      0.038517      0.011204
      2.49185      7.70262      4.03457        -0.020241     -0.011711     -0.245146
      1.24598      6.98296      6.04568         0.000545      0.000474     -0.003978
      3.73776      8.42196      2.00000         0.000002     -0.000430      0.189187
      3.73796      8.42116      7.95909        -0.000839      0.001017      0.045455
      4.98369      7.70262      4.03457         0.019280     -0.011991     -0.245876
      3.73757      6.97986      6.00871         0.000765      0.008701      0.008187
      1.24550      1.22844      9.17493         0.000385     -0.000802     -0.046173
      3.73794      5.54388      9.17393        -0.000159      0.000436     -0.027915
     -1.24627      5.54458      9.17458        -0.000241      0.001569     -0.042741
      6.23052      1.22872      9.17401        -0.000992     -0.001322     -0.031512
    total drift:                               -0.000479     -0.002746      0.031072

  FREE ENERGIE OF THE ION-ELECTRON SYSTEM (eV)
  free  energy   TOTEN  =      -376.27505672 eV

  energy  without entropy=     -376.18986141  energy(sigma->0) =     -376.24665829

 d Force = 0.3031088E-03[ 0.116E-04, 0.595E-03]  d Energy = 0.2880362E-03 0.151E-04
 d Force = 0.2192376E+02[ 0.219E+02, 0.219E+02]  d Ewald  = 0.2192376E+02-0.225E-05

 stress matrix after NEB project (eV)
    -34.40423      0.00136     -0.00271
      0.00136    -34.38850      0.01497
     -0.00271      0.01497     -7.19395
  FORCES: max atom, RMS     0.047561    0.023539
  FORCE total and by dimension    0.194111    0.046173
  Stress total and by dimension   49.172890   34.404227

 reached required accuracy - stopping structural energy minimisation
 writing wavefunctions

 total charge

[...]

 magnetization (x)

# of ion       s       p       d       tot
    1       -0.008  -0.025   0.708   0.674
    2       -0.003  -0.013   0.594   0.578
    3       -0.006  -0.025   0.766   0.735
    4       -0.007  -0.025   0.734   0.703
    5       -0.008  -0.025   0.708   0.674
    6       -0.003  -0.013   0.594   0.578
    7       -0.006  -0.025   0.731   0.700
    8       -0.007  -0.025   0.734   0.703
    9       -0.008  -0.025   0.708   0.674
   10       -0.003  -0.013   0.593   0.577
   11       -0.006  -0.025   0.766   0.735
   12       -0.007  -0.025   0.734   0.703
   13       -0.008  -0.025   0.708   0.674
   14       -0.003  -0.013   0.593   0.577
   15       -0.006  -0.025   0.731   0.701
   16       -0.007  -0.025   0.734   0.703
   17       -0.008  -0.025   0.708   0.674
   18       -0.003  -0.013   0.594   0.578
   19       -0.006  -0.025   0.731   0.700
   20       -0.006  -0.021   0.615   0.588
   21       -0.001  -0.025   0.748   0.722
   22       -0.011  -0.016   0.783   0.756
   23       -0.006  -0.025   0.731   0.700
   24       -0.007  -0.025   0.734   0.703
   25       -0.008  -0.025   0.708   0.674
   26       -0.003  -0.013   0.593   0.577
   27       -0.006  -0.025   0.731   0.700
   28       -0.006  -0.021   0.615   0.588
   29       -0.001  -0.025   0.749   0.722
   30       -0.011  -0.016   0.782   0.755
   31       -0.006  -0.025   0.731   0.700
   32       -0.007  -0.025   0.734   0.703
   33       -0.008  -0.025   0.708   0.674
   34       -0.003  -0.013   0.594   0.577
   35       -0.006  -0.025   0.766   0.735
   36       -0.007  -0.025   0.734   0.703
   37       -0.008  -0.025   0.708   0.674
   38       -0.003  -0.013   0.594   0.578
   39       -0.006  -0.025   0.731   0.701
   40       -0.007  -0.025   0.734   0.703
   41       -0.008  -0.025   0.708   0.674
   42       -0.003  -0.013   0.593   0.577
   43       -0.006  -0.025   0.766   0.735
   44       -0.007  -0.025   0.734   0.703
   45       -0.008  -0.025   0.708   0.675
   46       -0.003  -0.013   0.593   0.577
   47       -0.006  -0.025   0.731   0.701
   48       -0.007  -0.025   0.734   0.703
   49       -0.008  -0.025   0.708   0.674
   50       -0.003  -0.013   0.594   0.578
   51       -0.006  -0.025   0.731   0.701
   52       -0.006  -0.021   0.615   0.588
   53       -0.001  -0.025   0.748   0.722
   54       -0.011  -0.016   0.782   0.755
   55       -0.006  -0.025   0.731   0.700
   56       -0.007  -0.025   0.734   0.703
   57       -0.008  -0.025   0.708   0.674
   58       -0.003  -0.013   0.593   0.577
   59       -0.006  -0.025   0.731   0.700
   60       -0.006  -0.021   0.615   0.588
   61       -0.001  -0.025   0.749   0.722
   62       -0.011  -0.016   0.782   0.755
   63       -0.006  -0.025   0.731   0.701
   64       -0.007  -0.025   0.734   0.703
   65        0.002   0.121   0.000   0.123
   66        0.002   0.121   0.000   0.123
   67        0.002   0.121   0.000   0.123
   68        0.002   0.121   0.000   0.123
tot         -0.366  -0.923  44.842  43.553