 vasp.5.4.4.18Apr17-6-g9f103f2a35 (build Sep 06 2021 19:49:22) complex

 executed on             LinuxIFC date 2021.12.29  16:23:44

 INCAR:
 POTCAR:    PAW_PBE Ni 02Aug2007
 POTCAR:    PAW_PBE Fe 06Sep2000
 POTCAR:    PAW_PBE Ni 02Aug2007
   VRHFIN =Ni:

   TITEL  = PAW_PBE Ni 02Aug2007
   POMASS =   58.690; ZVAL   =   10.000    mass and valenz
   ENMAX  =  269.532; ENMIN  =  202.149 eV

 POTCAR:    PAW_PBE Fe 06Sep2000
   VRHFIN =Fe:  d7 s1

   TITEL  = PAW_PBE Fe 06Sep2000
   POMASS =   55.847; ZVAL   =    8.000    mass and valenz
   ENMAX  =  267.882; ENMIN  =  200.911 eV

 Optimization of the real space projectors (new method)

 maximal supplied QI-value         = 16.25
 optimisation between [QCUT,QGAM] = [ 11.54, 23.24] = [ 37.28,151.24] Ry
 Optimized for a Real-space Cutoff    1.45 Angstroem

   l    n(q)    QCUT    max X(q) W(low)/X(q) W(high)/X(q)  e(spline)
   2      9    11.539    60.317    0.19E-03    0.47E-04    0.16E-06
   2      9    11.539    55.921    0.19E-03    0.48E-04    0.16E-06
   0     10    11.539    51.690    0.80E-04    0.50E-04    0.24E-06
   0     10    11.539    30.015    0.73E-04    0.45E-04    0.22E-06
   1     10    11.539    18.849    0.87E-04    0.16E-03    0.71E-07
   1     10    11.539    14.624    0.73E-04    0.13E-03    0.64E-07
 Optimization of the real space projectors (new method)

 maximal supplied QI-value         = 16.25
 optimisation between [QCUT,QGAM] = [ 11.54, 23.24] = [ 37.28,151.24] Ry
 Optimized for a Real-space Cutoff    1.53 Angstroem

   l    n(q)    QCUT    max X(q) W(low)/X(q) W(high)/X(q)  e(spline)
   2     10    11.539    80.901    0.11E-03    0.14E-03    0.21E-06
   2     10    11.539    75.754    0.11E-03    0.14E-03    0.22E-06
   0     11    11.539    58.752    0.52E-04    0.18E-04    0.33E-06
   0     11    11.539    30.679    0.44E-04    0.16E-04    0.30E-06
   1     10    11.539    17.977    0.53E-04    0.29E-04    0.13E-06
   1     10    11.539    13.559    0.44E-04    0.25E-04    0.11E-06
  PAW_PBE Ni 02Aug2007                  :
  PAW_PBE Fe 06Sep2000                  :

 POSCAR: POSCAR
  positions in direct lattice
  velocities in cartesian coordinates
 exchange correlation table for  LEXCH =        8
   RHO(1)=    0.500       N(1)  =     2000
   RHO(2)=  100.500       N(2)  =     4000

 ion  position               nearest neighbor table
   1  0.999  0.000  0.501-  25 2.47  12 2.49   7 2.49   5 2.49  16 2.50  11 2.51  20 2.51  10 2.52
                             3 2.53   2 2.53  31 2.53  18 2.54
   2  0.002  0.252  0.749-  12 2.48  26 2.50   7 2.50  19 2.51  13 2.51  17 2.51   9 2.51   8 2.52
                             4 2.52   3 2.52  16 2.53   1 2.53
   3  0.250  1.000  0.750-  24 2.49  20 2.50   9 2.51  21 2.51   2 2.52  27 2.52   1 2.53  12 2.53
                            14 2.53  15 2.53   5 2.53  19 2.54
   4  1.000  0.500  0.499-  26 2.49  18 2.49   7 2.49  30 2.49  12 2.50  13 2.50   6 2.50   5 2.52
                             2 2.52  10 2.53  31 2.54  20 2.55
   5  0.998  0.751  0.745-   1 2.49  26 2.50  31 2.50  20 2.50  13 2.51   4 2.52  16 2.52   9 2.53
                             3 2.53  32 2.55  27 2.56  17 2.58
   6  0.250  0.499  0.253-   4 2.50  23 2.51  12 2.51  28 2.51  10 2.51  29 2.52  18 2.52  19 2.53
                            17 2.55  20 2.55  27 2.55  22 2.56
   7  0.756  0.250  0.500-  30 2.48   1 2.49   4 2.49  16 2.50  26 2.50   2 2.50  25 2.50  10 2.52
                            14 2.54  22 2.54  23 2.55  15 2.57
   8  0.755  0.250  0.999-  17 2.49   9 2.49   2 2.52  30 2.52  16 2.52  22 2.54  10 2.54  25 2.54
                            26 2.54  15 2.55  21 2.57  28 2.58
   9  0.999  0.001  0.995-   8 2.49  19 2.51  16 2.51   3 2.51   2 2.51   5 2.53  25 2.53  27 2.54
                            32 2.54  10 2.54  11 2.56  18 2.59
  10  0.005  0.248  0.251-  12 2.46  19 2.47  11 2.49  25 2.50   6 2.51   1 2.52   7 2.52  30 2.52
                            17 2.52   4 2.53   8 2.54   9 2.54
  11  0.247  0.997  0.253-  20 2.49  10 2.49   1 2.51  12 2.52  18 2.52  29 2.52  27 2.53  19 2.55
                             9 2.56  22 2.56  14 2.56  21 2.56
  12  0.243  0.249  0.499-  10 2.46   2 2.48   1 2.49   4 2.50   6 2.51  11 2.52   3 2.53  13 2.54
                            15 2.57  14 2.57  23 2.58  22 2.58
  13  0.247  0.504  0.745-   4 2.50  20 2.50   5 2.51   2 2.51  24 2.52  27 2.52  23 2.53  12 2.54
                            17 2.54  15 2.55  28 2.57  19 2.58
  14  0.503  0.001  0.503-  24 2.49  16 2.49  31 2.51  22 2.52  15 2.52   3 2.53  20 2.53  29 2.53
                             7 2.54  25 2.55  11 2.56  12 2.57
  15  0.498  0.252  0.751-  14 2.52   3 2.53  21 2.53  23 2.53  16 2.53  13 2.55  19 2.55   8 2.55
                            28 2.55  26 2.55  12 2.57   7 2.57
  16  0.751  0.003  0.747-  14 2.49   1 2.50   7 2.50   9 2.51   8 2.52   5 2.52  31 2.52   2 2.53
                            15 2.53  21 2.54  24 2.55  32 2.56
  17  0.999  0.497  0.001-   8 2.49  19 2.49   2 2.51  26 2.52  10 2.52  30 2.52  18 2.54  13 2.54
                            27 2.54   6 2.55  32 2.55   5 2.58
  18  0.999  0.747  0.253-   4 2.49  25 2.52  11 2.52   6 2.52  20 2.52  31 2.53  30 2.53   1 2.54
                            17 2.54  27 2.55  32 2.55   9 2.59
  19  0.245  0.250  0.002-  10 2.47  17 2.49   9 2.51   2 2.51   6 2.53   3 2.54  11 2.55  15 2.55
                            28 2.55  21 2.56  22 2.56  13 2.58
  20  0.249  0.754  0.502-  11 2.49  24 2.49   3 2.50  13 2.50   5 2.50   1 2.51  29 2.51  18 2.52
                            14 2.53   6 2.55   4 2.55  23 2.56
  21  0.499  0.997  0.997-  24 2.50  32 2.51  27 2.51   3 2.51  15 2.53  22 2.53  16 2.54  29 2.55
                            19 2.56  11 2.56   8 2.57  25 2.60
  22  0.504  0.246  0.250-  30 2.51  25 2.51  14 2.52  21 2.53   8 2.54   7 2.54  23 2.54  28 2.54
                            11 2.56  19 2.56   6 2.56  12 2.58
  23  0.501  0.500  0.498-  29 2.50   6 2.51  30 2.51  31 2.51  13 2.53  15 2.53  26 2.54  24 2.54
                            22 2.54   7 2.55  20 2.56  12 2.58
  24  0.496  0.753  0.747-  14 2.49  20 2.49   3 2.49  21 2.50  31 2.52  27 2.52  13 2.52  23 2.54
                            32 2.55  16 2.55  28 2.56  26 2.59
  25  0.757  0.002  0.253-   1 2.47  10 2.50   7 2.50  22 2.51  18 2.52  31 2.52   9 2.53   8 2.54
                            14 2.55  32 2.56  29 2.59  21 2.60
  26  0.755  0.500  0.746-   4 2.49   5 2.50   7 2.50   2 2.50  31 2.51  17 2.52  23 2.54   8 2.54
                            32 2.55  15 2.55  24 2.59  28 2.61
  27  0.250  0.750  0.999-  28 2.50  21 2.51  24 2.52  13 2.52   3 2.52  11 2.53   9 2.54  29 2.54
                            17 2.54  18 2.55   6 2.55   5 2.56
  28  0.497  0.503  0.004-  27 2.50  29 2.51   6 2.51  32 2.51  22 2.54  30 2.55  15 2.55  19 2.55
                            24 2.56  13 2.57   8 2.58  26 2.61
  29  0.498  0.750  0.253-  23 2.50  28 2.51  20 2.51  31 2.51   6 2.52  11 2.52  14 2.53  27 2.54
                            32 2.54  21 2.55  30 2.58  25 2.59
  30  0.752  0.494  0.253-   7 2.48   4 2.49  22 2.51  23 2.51   8 2.52  10 2.52  17 2.52  18 2.53
                            28 2.55  31 2.55  32 2.57  29 2.58
  31  0.748  0.750  0.501-   5 2.50  14 2.51  26 2.51  23 2.51  29 2.51  24 2.52  16 2.52  25 2.52
                            18 2.53   1 2.53   4 2.54  30 2.55
  32  0.748  0.750  1.000-  21 2.51  28 2.51   9 2.54  29 2.54  24 2.55  26 2.55  17 2.55  18 2.55
                             5 2.55  25 2.56  16 2.56  30 2.57

IMPORTANT INFORMATION: All symmetrisations will be switched off!
NOSYMM: (Re-)initialisation of all symmetry stuff for point group C_1.

Automatic generation of k-mesh.
 generate k-points for:    3    3    3
Space group operators:
 irot       det(A)        alpha          n_x          n_y          n_z        tau_x        tau_y        tau_z
    1     1.000000     0.000000     1.000000     0.000000     0.000000     0.000000     0.000000     0.000000

 Subroutine IBZKPT returns following result:

 Found     14 irreducible k-points:

 Following reciprocal coordinates:
            Coordinates               Weight
  0.000000  0.000000  0.000000      1.000000
  0.333333  0.000000  0.000000      2.000000
  0.000000  0.333333  0.000000      2.000000
  0.333333  0.333333  0.000000      2.000000
 -0.333333  0.333333  0.000000      2.000000
  0.000000  0.000000  0.333333      2.000000
  0.333333  0.000000  0.333333      2.000000
 -0.333333  0.000000  0.333333      2.000000
  0.000000  0.333333  0.333333      2.000000
  0.333333  0.333333  0.333333      2.000000
 -0.333333  0.333333  0.333333      2.000000
  0.000000 -0.333333  0.333333      2.000000
  0.333333 -0.333333  0.333333      2.000000
 -0.333333 -0.333333  0.333333      2.000000

 Following cartesian coordinates:
            Coordinates               Weight
  0.000000  0.000000  0.000000      1.000000
  0.166667  0.000000  0.000000      2.000000
  0.000000  0.166667  0.000000      2.000000
  0.166667  0.166667  0.000000      2.000000
 -0.166667  0.166667  0.000000      2.000000
  0.000000  0.000000  0.166667      2.000000
  0.166667  0.000000  0.166667      2.000000
 -0.166667  0.000000  0.166667      2.000000
  0.000000  0.166667  0.166667      2.000000
  0.166667  0.166667  0.166667      2.000000
 -0.166667  0.166667  0.166667      2.000000
  0.000000 -0.166667  0.166667      2.000000
  0.166667 -0.166667  0.166667      2.000000
 -0.166667 -0.166667  0.166667      2.000000

 TETIRR: Found     78 inequivalent tetrahedra from      162

 SYSTEM =  SQS-NiFe
 POSCAR =  POSCAR

 Startparameter for this run:
   NWRITE =      2    write-flag & timer
   PREC   = accura    normal or accurate (medium, high low for compatibility)
   ISTART =      0    job   : 0-new  1-cont  2-samecut
   ICHARG =      2    charge: 1-file 2-atom 10-const
   ISPIN  =      2    spin polarized calculation?
   LNONCOLLINEAR =      F non collinear calculations
   LSORBIT =      F    spin-orbit coupling
   INIWAV =      1    electr: 0-lowe 1-rand  2-diag
   LASPH  =      F    aspherical Exc in radial PAW
   METAGGA=      F    non-selfconsistent MetaGGA calc.

 Electronic Relaxation 1
   ENCUT  =  520.0 eV  38.22 Ry    6.18 a.u.  13.29 13.29 13.29*2*pi/ulx,y,z
   ENINI  =  520.0     initial cutoff
   ENAUG  =  544.6 eV  augmentation charge cutoff
   NELM   =    200;   NELMIN=  2; NELMDL= -5     # of ELM steps
   EDIFF  = 0.1E-05   stopping-criterion for ELM
   LREAL  =      T    real-space projection
   NLSPLINE    = F    spline interpolate recip. space projectors
   LCOMPAT=      F    compatible to vasp.4.4
   GGA_COMPAT  = T    GGA compatible to vasp.4.4-vasp.4.6
   LMAXPAW     = -100 max onsite density
   LMAXMIX     =    2 max onsite mixed and CHGCAR
   VOSKOWN=      0    Vosko Wilk Nusair interpolation
   ROPT   =   -0.00025  -0.00025
 Ionic relaxation
   EDIFFG = -.2E-01   stopping-criterion for IOM
   NSW    =      0    number of steps for IOM
   NBLOCK =      1;   KBLOCK =      1    inner block; outer block
   IBRION =     -1    ionic relax: 0-MD 1-quasi-New 2-CG
   NFREE  =      0    steps in history (QN), initial steepest desc. (CG)
   ISIF   =      2    stress and relaxation
[...]
     33       2.5900      1.00000
     34       2.6028      1.00000
     35       2.6392      1.00000
     36       3.1388      1.00000
     37       3.1740      1.00000
     38       3.1834      1.00000
     39       3.1967      1.00000
     40       3.2087      1.00000
     41       3.2170      1.00000
     42       3.4302      1.00000
     43       3.4435      1.00000
     44       3.4468      1.00000
     45       3.4621      1.00000
     46       3.4694      1.00000
     47       3.4811      1.00000
     48       3.4904      1.00000
     49       3.5101      1.00000
     50       3.5150      1.00000
     51       3.5180      1.00000
     52       3.5302      1.00000
     53       3.5368      1.00000
     54       3.5400      1.00000
     55       3.5450      1.00000
     56       3.5572      1.00000
     57       3.5609      1.00000
     58       3.5667      1.00000
     59       3.5779      1.00000
     60       3.5848      1.00000
[...]
    190      12.8338      0.00000
    191      14.3972      0.00000
    192      14.4462      0.00000
    193      14.4612      0.00000
    194      14.5180      0.00000
    195      14.5377      0.00000
    196      14.5422      0.00000
    197      14.5537      0.00000
    198      14.5611      0.00000
    199      14.5778      0.00000
    200      14.6215      0.00000
    201      14.6359      0.00000
    202      14.6959      0.00000
    203      16.1024      0.00000
    204      16.1370      0.00000

[...]

 spin component 2

[...]

 k-point    14 :      -0.3333   -0.3333    0.3333
  band No.  band energies     occupation
      1      -0.8157      1.00000
      2       0.0915      1.00000
      3       0.1457      1.00000
      4       0.2462      1.00000
      5       0.9531      1.00000
      6       1.0277      1.00000
      7       1.1174      1.00000
      8       1.6913      1.00000
      9       2.7912      1.00000
     10       2.8324      1.00000
     11       2.8772      1.00000
     12       3.1658      1.00000
     13       3.2017      1.00000
     14       3.2211      1.00000
     15       3.2526      1.00000
     16       3.2905      1.00000
     17       3.3073      1.00000
     18       3.3205      1.00000
     19       3.3514      1.00000
     20       3.3700      1.00000
     21       3.3786      1.00000
     22       3.4017      1.00000
     23       3.4374      1.00000
     24       3.7093      1.00000
     25       3.7277      1.00000
     26       3.7439      1.00000
     27       3.7797      1.00000
     28       3.8105      1.00000
     29       3.8287      1.00000
     30       3.8459      1.00000
     31       3.9057      1.00000
     32       3.9252      1.00000
     33       3.9621      1.00000
     34       4.0306      1.00000
     35       4.0473      1.00000
     36       4.1510      1.00000
     37       4.1896      1.00000
     38       4.2152      1.00000
     39       4.2433      1.00000
     40       4.2738      1.00000
     41       4.3059      1.00000
     42       4.3574      1.00000
     43       4.3911      1.00000
     44       4.4325      1.00000
     45       4.4533      1.00000
     46       4.4887      1.00000
     47       4.5366      1.00000
     48       4.5807      1.00000
     49       4.6087      1.00000
     50       4.6263      1.00000
     51       4.6837      1.00000
     52       4.7285      1.00000
     53       4.7487      1.00000
     54       4.8636      1.00000
     55       4.9249      1.00000
     56       4.9710      1.00000
     57       5.0311      1.00000
     58       5.0670      1.00000
     59       5.1002      1.00000
     60       5.1317      1.00000
[...]
    190      12.0247      0.00000
    191      12.0859      0.00000
    192      12.1362      0.00000
    193      14.1179      0.00000
    194      14.2505      0.00000
    195      14.5472      0.00000
    196      14.8906      0.00000
    197      14.9044      0.00000
    198      14.9183      0.00000
    199      15.5629      0.00000
    200      15.6479      0.00000
    201      15.6838      0.00000
    202      15.8270      0.00000
    203      15.8421      0.00000
    204      15.9005      0.00000

 soft charge-density along one line, spin component           1
         0         1         2         3         4         5         6         7         8         9
 total charge-density along one line

 soft charge-density along one line, spin component           2
         0         1         2         3         4         5         6         7         8         9
 total charge-density along one line

------------------------ aborting loop because EDIFF is reached ----------------------------------------

 total charge

# of ion       s       p       d       tot
    1        0.519   0.532   8.319   9.370
    2        0.514   0.523   8.317   9.354
    3        0.513   0.523   8.321   9.357
    4        0.518   0.530   8.322   9.370
    5        0.514   0.524   8.311   9.349
    6        0.516   0.534   8.313   9.363
    7        0.518   0.532   8.313   9.363
    8        0.516   0.530   8.304   9.350
    9        0.477   0.513   6.212   7.202
   10        0.486   0.527   6.233   7.245
   11        0.488   0.531   6.230   7.248
   12        0.478   0.510   6.207   7.195
   13        0.483   0.516   6.212   7.212
   14        0.485   0.526   6.228   7.239
   15        0.473   0.502   6.208   7.183
   16        0.481   0.513   6.206   7.200
   17        0.478   0.512   6.214   7.204
   18        0.479   0.515   6.218   7.212
   19        0.479   0.514   6.219   7.212
   20        0.480   0.516   6.221   7.218
   21        0.478   0.515   6.209   7.201
   22        0.473   0.505   6.213   7.190
   23        0.481   0.519   6.223   7.224
   24        0.488   0.533   6.232   7.253
   25        0.479   0.516   6.213   7.207
   26        0.472   0.505   6.190   7.167
   27        0.478   0.512   6.218   7.208
   28        0.474   0.508   6.208   7.190
   29        0.484   0.525   6.222   7.231
   30        0.483   0.518   6.216   7.218
   31        0.487   0.525   6.224   7.237
   32        0.479   0.517   6.207   7.204
tot         15.651  16.624 215.704 247.979

 magnetization (x)

[...]

  FORCE on cell =-STRESS in cart. coord.  units (eV):
  Direction    XX          YY          ZZ          XY          YZ          ZX
  Alpha Z  1846.49885  1846.49885  1846.49885
  Ewald   -7175.43523 -7067.74466 -7116.53242     2.18733     0.65674     0.28087
  Hartree  1402.20487  1504.43427  1458.10291     1.62803     1.59158     0.37336
  E(xc)   -1396.49467 -1396.28383 -1396.29766    -0.00831     0.00776    -0.06270
  Local    1295.53969  1089.82249  1182.98373    -3.24517    -2.79500    -0.35543
  n-local  -676.15001  -675.40408  -675.81735    -0.18585    -0.12958    -0.44875
  augment  2341.19085  2337.45935  2339.04658    -0.38190     0.41229    -0.14358
  Kinetic  2369.25842  2364.57260  2364.84878     0.30581    -0.02907     0.59515
  Fock        0.00000     0.00000     0.00000     0.00000     0.00000     0.00000
  Total       6.61277     3.35500     2.83342     0.29994    -0.28527     0.23893
  in kB      28.98517    14.70568    12.41948     1.31472    -1.25041     1.04729

 VOLUME and BASIS-vectors are now :
  energy-cutoff  :      520.00
  volume of cell :      365.53
      direct lattice vectors                 reciprocal lattice vectors
     7.150000000  0.000000000  0.000000000     0.139860140  0.000000000  0.000000000
     0.000000000  7.150000000  0.000000000     0.000000000  0.139860140  0.000000000
     0.000000000  0.000000000  7.150000000     0.000000000  0.000000000  0.139860140

  length of vectors
     7.150000000  7.150000000  7.150000000     0.139860140  0.139860140  0.139860140

 FORCES acting on ions
    electron-ion (+dipol)            ewald-force                    non-local-force                 convergence-correction
   -.155E+01 0.424E+02 0.752E+02   0.163E+01 -.426E+02 -.754E+02   -.516E-01 0.123E+00 0.437E+00   0.230E-02 -.155E-02 -.830E-03
   -.249E+02 -.225E+02 -.677E+02   0.250E+02 0.226E+02 0.680E+02   -.223E+00 -.341E-01 -.292E+00   -.541E-03 0.551E-03 -.210E-02
   -.962E+02 0.413E+01 -.458E+02   0.964E+02 -.396E+01 0.459E+02   -.432E+00 0.130E-02 -.128E+00   -.375E-03 -.318E-02 -.110E-02
   -.206E+01 -.450E+02 0.348E+02   0.206E+01 0.452E+02 -.349E+02   0.398E-02 -.169E+00 0.212E+00   -.275E-03 0.157E-02 0.444E-03
   0.259E+02 0.257E+02 -.814E+02   -.260E+02 -.257E+02 0.819E+02   0.237E-01 0.714E-01 -.425E+00   0.381E-02 -.650E-03 -.445E-02
   -.617E+02 -.152E+02 0.471E+02   0.618E+02 0.152E+02 -.472E+02   -.292E+00 -.111E+00 0.228E+00   -.706E-02 0.997E-03 0.419E-02
   0.120E+03 -.313E+01 0.305E+02   -.120E+03 0.312E+01 -.305E+02   0.520E+00 0.152E-01 0.139E+00   0.391E-02 0.759E-03 -.657E-03
   0.774E+02 -.360E+01 -.323E+02   -.778E+02 0.363E+01 0.324E+02   0.360E+00 -.311E-01 -.222E+00   0.278E-02 -.248E-02 0.635E-03
   0.185E+01 0.440E+02 -.679E+02   -.175E+01 -.441E+02 0.684E+02   -.120E+00 0.110E+00 -.715E+00   0.196E-02 0.771E-03 0.427E-03
   -.139E+02 0.162E+02 0.568E+02   0.139E+02 -.163E+02 -.572E+02   -.144E+00 0.282E+00 0.523E+00   -.133E-02 -.495E-03 0.161E-02
   -.543E+02 0.999E+01 0.426E+02   0.544E+02 -.990E+01 -.429E+02   -.195E+00 0.182E-02 0.194E+00   -.218E-02 -.753E-03 0.847E-03
   -.104E+03 -.133E+01 0.250E+02   0.105E+03 0.131E+01 -.249E+02   -.615E+00 -.662E-01 0.216E+00   -.330E-02 -.132E-02 0.361E-03
   -.893E+02 -.251E+01 -.418E+02   0.897E+02 0.238E+01 0.422E+02   -.630E+00 -.655E-01 -.357E+00   -.387E-02 0.242E-02 -.328E-02
   0.481E+01 0.149E+02 0.368E+02   -.488E+01 -.147E+02 -.370E+02   0.241E-01 0.307E+00 0.774E-01   -.176E-02 -.585E-03 0.106E-02
   0.157E+02 -.294E+02 -.188E+02   -.160E+02 0.295E+02 0.189E+02   0.255E+00 -.906E-01 -.318E-01   0.276E-03 -.296E-02 -.834E-03
   0.823E+02 0.470E+02 -.446E+02   -.827E+02 -.472E+02 0.448E+02   0.742E+00 0.401E+00 -.228E+00   0.540E-03 0.923E-03 -.934E-03
   0.405E+00 -.469E+02 -.252E+02   -.424E+00 0.471E+02 0.254E+02   0.437E-02 -.622E-01 -.334E+00   0.337E-04 -.734E-03 -.288E-03
   0.214E+02 -.192E+02 0.648E+02   -.215E+02 0.193E+02 -.653E+02   0.126E+00 -.217E+00 0.575E+00   0.210E-02 0.449E-03 0.357E-02
   -.634E+02 -.183E+01 -.235E+02   0.637E+02 0.183E+01 0.234E+02   -.178E+00 0.264E-01 -.205E+00   -.240E-02 -.386E-02 -.326E-03
   -.775E+02 0.781E+01 0.340E+02   0.777E+02 -.789E+01 -.342E+02   -.617E+00 -.120E-02 0.223E+00   -.367E-02 0.138E-02 0.196E-02
   -.784E+01 0.168E+02 -.391E+02   0.786E+01 -.166E+02 0.393E+02   0.776E-01 0.220E+00 -.139E+00   -.200E-02 0.135E-02 -.108E-02
   0.254E+02 0.182E+02 0.187E+02   -.256E+02 -.183E+02 -.187E+02   0.148E+00 0.151E+00 -.886E-02   0.120E-02 -.390E-02 0.788E-03
   0.198E+01 -.152E+02 -.130E+02   -.204E+01 0.150E+02 0.132E+02   -.381E-02 -.302E+00 -.136E+00   0.202E-03 0.445E-03 0.214E-02
   -.305E+02 0.339E+02 -.231E+02   0.307E+02 -.341E+02 0.232E+02   -.957E-01 0.361E-01 -.306E-01   -.310E-02 0.303E-02 -.267E-02
   0.572E+02 0.538E+02 0.489E+02   -.572E+02 -.542E+02 -.491E+02   0.843E-01 0.405E+00 0.144E+00   0.221E-02 0.241E-02 0.104E-02
   0.969E+02 -.468E+02 -.483E+02   -.972E+02 0.469E+02 0.485E+02   0.445E+00 -.390E+00 -.135E+00   0.395E-02 -.955E-03 -.348E-02
   -.322E+02 0.374E+01 -.319E+02   0.320E+02 -.378E+01 0.321E+02   -.304E+00 0.135E-01 -.215E+00   -.292E-02 0.394E-02 -.200E-02
   -.105E+02 -.157E+02 0.183E+02   0.105E+02 0.156E+02 -.185E+02   0.104E+00 -.238E+00 0.166E+00   -.168E-03 -.136E-02 -.209E-02
   -.272E+02 -.224E+02 0.227E+02   0.272E+02 0.225E+02 -.228E+02   0.208E-02 -.509E-01 0.409E-02   -.214E-02 0.398E-02 0.280E-02
   0.517E+02 -.560E+02 0.456E+02   -.519E+02 0.564E+02 -.458E+02   0.217E+00 -.393E+00 0.165E+00   0.556E-02 -.251E-02 0.344E-02
   0.772E+02 0.429E+01 0.326E+02   -.775E+02 -.434E+01 -.328E+02   0.755E+00 0.413E-01 0.294E+00   0.374E-02 -.438E-03 0.110E-02
   0.369E+02 0.374E+01 -.296E+02   -.369E+02 -.377E+01 0.297E+02   0.297E+00 0.760E-02 -.207E+00   0.284E-02 0.207E-02 -.111E-02
   -.287E+00 0.979E-02 0.212E+00   0.654E-12 -.171E-12 0.103E-12   0.289E+00 -.975E-02 -.212E+00   0.309E-03 -.690E-03 -.828E-03

 POSITION                                       TOTAL-FORCE (eV/Angst)
      7.14178      0.00039      3.58102         0.029990     -0.067082      0.220087
      0.01694      1.80028      5.35542        -0.085875      0.020560     -0.028286
      1.78494      7.14965      5.36038        -0.220707      0.164799      0.002361
      7.14932      3.57172      3.56458         0.010619      0.029479      0.116548
      7.13493      5.37005      5.32730        -0.000088      0.010731      0.036506
      1.78866      3.56825      1.81205        -0.194278     -0.109252      0.050436
      5.40579      1.78974      3.57696        -0.009130      0.001946      0.087856
      5.39643      1.78689      7.14224        -0.030774     -0.009137     -0.101884
      7.14201      0.00630      7.11598        -0.018876     -0.043828     -0.224428
      0.03504      1.77183      1.79336        -0.184086      0.221396      0.154702
      1.76434      7.13097      1.80663        -0.044976      0.090473     -0.106311
      1.73581      1.77929      3.56795         0.166593     -0.085741      0.302470
      1.76531      3.60473      5.33017        -0.244131     -0.191743     -0.028193
      3.59620      0.00788      3.59761        -0.040467      0.473922     -0.112732
      3.56240      1.79883      5.36934        -0.024591      0.059858     -0.011875
      5.37213      0.02397      5.34104         0.343932      0.227474     -0.055990
      7.14530      3.55395      0.00580        -0.014635      0.110281     -0.122801
      7.14502      5.33892      1.80692         0.079430     -0.085551      0.065225
      1.75161      1.79015      0.01452         0.135875      0.019544     -0.292832
      1.78247      5.39338      3.58649        -0.482870     -0.071620      0.059001
      3.56627      7.13179      7.13140         0.094537      0.383559      0.057965
      3.60307      1.75642      1.78612        -0.096166      0.050436     -0.024276
      3.58192      3.57671      3.56384        -0.063026     -0.435673      0.055021
      3.54953      5.38679      5.34453         0.100182     -0.161480      0.009802
      5.41315      0.01448      1.81103         0.030945     -0.004725     -0.065891
      5.40000      3.57256      5.33245         0.158124     -0.232425      0.038466
      1.78570      5.36098      7.14242        -0.481418     -0.027761     -0.038517
      3.55376      3.59738      0.03018         0.092095     -0.386778     -0.035835
      3.55888      5.36046      1.81226         0.075619      0.064819     -0.033538
      5.37885      3.52891      1.80942         0.065323      0.016607     -0.025482
      5.34708      5.36587      3.58067         0.514699     -0.008890      0.143117
      5.34537      5.36048      7.14990         0.338126     -0.024195     -0.090692
    total drift:                                0.002351     -0.000641     -0.000724

  FREE ENERGIE OF THE ION-ELECTRON SYSTEM (eV)
  free  energy   TOTEN  =      -239.36284953 eV

  energy  without entropy=     -239.36284953  energy(sigma->0) =     -239.36284953

 total charge

[...]

 magnetization (x)

# of ion       s       p       d       tot
    1       -0.030  -0.054   0.688   0.604
    2       -0.029  -0.052   0.688   0.607
    3       -0.030  -0.055   0.676   0.591
    4       -0.030  -0.054   0.678   0.594
    5       -0.031  -0.057   0.710   0.622
    6       -0.033  -0.066   0.711   0.612
    7       -0.030  -0.058   0.704   0.617
    8       -0.033  -0.066   0.731   0.632
    9       -0.011  -0.038   2.516   2.467
   10       -0.011  -0.035   2.459   2.413
   11       -0.019  -0.051   2.401   2.331
   12       -0.010  -0.030   2.551   2.511
   13       -0.015  -0.037   2.496   2.444
   14       -0.016  -0.044   2.457   2.396
   15       -0.013  -0.038   2.524   2.473
   16       -0.011  -0.030   2.547   2.506
   17       -0.011  -0.036   2.516   2.469
   18       -0.013  -0.041   2.485   2.431
   19       -0.014  -0.040   2.475   2.422
   20       -0.010  -0.030   2.492   2.451
   21       -0.014  -0.042   2.534   2.479
   22       -0.012  -0.038   2.507   2.456
   23       -0.016  -0.044   2.469   2.409
   24       -0.016  -0.049   2.439   2.373
   25       -0.013  -0.037   2.552   2.501
   26       -0.008  -0.030   2.636   2.598
   27       -0.014  -0.036   2.501   2.451
   28       -0.014  -0.043   2.525   2.468
   29       -0.016  -0.047   2.492   2.429
   30       -0.014  -0.038   2.483   2.431
   31       -0.015  -0.037   2.493   2.441
   32       -0.017  -0.049   2.525   2.458
tot         -0.573  -1.401  65.660  63.686

 BZINTS: Fermi energy:  6.650698;272.000000 electrons
         Band energy:1170.004787;  BLOECHL correction: -0.034510