 vasp.5.4.4.18Apr17-6-g9f103f2a35 (build Dec 15 2018 21:27:11) complex

 executed on             LinuxIFC date 2022.04.09  21:18:07

 INCAR:
 POTCAR:    PAW_PBE Fe 06Sep2000

 POTCAR:    PAW_PBE Fe 06Sep2000
   VRHFIN =Fe:  d7 s1

   TITEL  = PAW_PBE Fe 06Sep2000
   POMASS =   55.847; ZVAL   =    8.000    mass and valenz
   ENMAX  =  267.882; ENMIN  =  200.911 eV

 Optimization of the real space projectors (new method)

 maximal supplied QI-value         = 16.25
 optimisation between [QCUT,QGAM] = [ 11.54, 23.24] = [ 37.28,151.24] Ry
 Optimized for a Real-space Cutoff    1.53 Angstroem

   l    n(q)    QCUT    max X(q) W(low)/X(q) W(high)/X(q)  e(spline)
   2     10    11.539    80.901    0.11E-03    0.14E-03    0.21E-06
   2     10    11.539    75.754    0.11E-03    0.14E-03    0.22E-06
   0     11    11.539    58.752    0.52E-04    0.18E-04    0.33E-06
   0     11    11.539    30.679    0.44E-04    0.16E-04    0.30E-06
   1     10    11.539    17.977    0.53E-04    0.29E-04    0.13E-06
   1     10    11.539    13.559    0.44E-04    0.25E-04    0.11E-06
  PAW_PBE Fe 06Sep2000                  :

 POSCAR: POSCAR
  positions in direct lattice
  velocities in cartesian coordinates
 exchange correlation table for  LEXCH =        8
   RHO(1)=    0.500       N(1)  =     2000
   RHO(2)=  100.500       N(2)  =     4000

 VTST: version 3.2, (02/03/18)

 CHAIN: initializing optimizer

 OPT: Using VASP Dynamics algorithm
 CHAIN: Read ICHAIN            0

 POSCAR: POSCAR
  positions in direct lattice
  velocities in cartesian coordinates

 ion  position               nearest neighbor table
   1  0.087  0.163  0.095-   3 2.48  31 2.48  13 2.48   5 2.48  17 2.48  49 2.48  15 2.87  19 2.87
                            29 2.87  53 2.87
   2  0.087  0.163  0.285-  32 2.42   4 2.43  31 2.44   3 2.45  18 2.48  14 2.48   6 2.48  50 2.48
                            20 2.82  16 2.82  15 2.83  19 2.84  30 2.87  54 2.87
   3  0.212  0.038  0.191-   2 2.45  54 2.45  53 2.48   1 2.48   7 2.48  15 2.48  19 2.48  51 2.48
                             6 2.83  50 2.84   5 2.87  49 2.87  31 2.87  55 2.87
   4  0.212  0.037  0.378-   2 2.43  54 2.43  16 2.48  52 2.48  20 2.48   8 2.48  50 2.81   6 2.83
                            32 2.87  56 2.88
   5  0.337  0.163  0.095-   7 2.48  19 2.48   9 2.48   1 2.48  21 2.48  53 2.48  23 2.87   3 2.87
                            17 2.87  57 2.87
   6  0.337  0.163  0.285-   8 2.43  20 2.43  19 2.44   7 2.44  22 2.48  10 2.48   2 2.48  54 2.49
                            24 2.83   3 2.83  23 2.83   4 2.83  18 2.86  58 2.87
   7  0.462  0.038  0.191-   6 2.44  58 2.45  57 2.48   5 2.48   3 2.48  11 2.48  23 2.48  55 2.48
                            10 2.83  54 2.84   9 2.87  53 2.87  19 2.87  59 2.87
   8  0.462  0.038  0.377-  58 2.42   6 2.43  12 2.48   4 2.48  56 2.49  24 2.49  54 2.81  10 2.82
                            20 2.86  60 2.87
   9  0.587  0.163  0.095-  11 2.48  23 2.48  13 2.48   5 2.48  25 2.48  57 2.48  27 2.87   7 2.87
                            21 2.87  61 2.87
  10  0.587  0.163  0.284-  23 2.43  24 2.43  12 2.44  11 2.44   6 2.48  26 2.48  14 2.48  58 2.48
                             8 2.82  28 2.82   7 2.83  27 2.83  22 2.86  62 2.87
  11  0.712  0.038  0.191-  10 2.44  62 2.45  61 2.48   9 2.48   7 2.48  15 2.48  27 2.48  59 2.48
                            14 2.83  58 2.83  13 2.87  57 2.87  23 2.87  63 2.87
  12  0.711  0.039  0.378-  62 2.43  10 2.44  28 2.48   8 2.48  16 2.48  60 2.49  58 2.82  14 2.83
                            24 2.85  64 2.88
  13  0.837  0.163  0.095-  15 2.48  27 2.48   1 2.48   9 2.48  29 2.48  61 2.48  31 2.87  11 2.87
                            49 2.87  25 2.87
  14  0.837  0.163  0.285-  28 2.43  27 2.43  16 2.44  15 2.44  30 2.48   2 2.48  10 2.48  62 2.49
                            32 2.82  31 2.83  11 2.83  12 2.83  26 2.86  50 2.87
  15  0.962  0.038  0.191-  14 2.44  50 2.45  49 2.48  13 2.48   3 2.48  11 2.48  31 2.48  63 2.48
                             2 2.83  62 2.84   1 2.87  61 2.87  51 2.87  27 2.87
  16  0.962  0.038  0.378-  50 2.43  14 2.44   4 2.48  64 2.48  12 2.48  32 2.49  62 2.82   2 2.82
                            28 2.87  52 2.88
  17  0.087  0.413  0.095-  19 2.48  47 2.48  29 2.48  21 2.48  33 2.48   1 2.48  35 2.87  31 2.87
                            45 2.87   5 2.87
  18  0.088  0.412  0.284-  19 2.43  48 2.44  20 2.44  47 2.44   2 2.48  34 2.48  22 2.48  30 2.49
                            32 2.82  36 2.82  31 2.83  35 2.83   6 2.86  46 2.87
  19  0.212  0.288  0.191-  18 2.43   6 2.44  17 2.48   5 2.48  23 2.48  31 2.48   3 2.48  35 2.48
                            22 2.82   2 2.84   1 2.87  21 2.87   7 2.87  47 2.87
  20  0.212  0.287  0.378-   6 2.43  18 2.44  32 2.48  36 2.48   4 2.48  24 2.49   2 2.82  22 2.84
                             8 2.86  48 2.87
  21  0.337  0.413  0.095-  23 2.48  35 2.48  25 2.48  17 2.48   5 2.48  37 2.48  19 2.87  39 2.87
                            33 2.87   9 2.87
  22  0.338  0.412  0.284-  23 2.43  35 2.44  36 2.44  24 2.44  38 2.48   6 2.48  26 2.48  18 2.48
                            39 2.82  19 2.82  40 2.83  20 2.84  10 2.86  34 2.87
  23  0.462  0.288  0.191-  22 2.43  10 2.43  21 2.48   9 2.48  19 2.48  27 2.48   7 2.48  39 2.48
                            26 2.82   6 2.83  25 2.87   5 2.87  35 2.87  11 2.87
  24  0.463  0.288  0.378-  10 2.43  22 2.44  40 2.48  28 2.48   8 2.49  20 2.49   6 2.83  26 2.83
                            12 2.85  36 2.86
  25  0.587  0.413  0.095-  27 2.48  39 2.48  29 2.48  21 2.48   9 2.48  41 2.48  23 2.87  43 2.87
                            37 2.87  13 2.87
  26  0.587  0.413  0.284-  39 2.43  27 2.43  28 2.44  40 2.44  30 2.48  22 2.48  42 2.48  10 2.48
                            43 2.82  23 2.82  24 2.83  44 2.83  38 2.85  14 2.86
  27  0.712  0.288  0.191-  26 2.43  14 2.43  25 2.48  13 2.48  23 2.48  31 2.48  11 2.48  43 2.48
                            10 2.83  30 2.83  29 2.87   9 2.87  39 2.87  15 2.87
  28  0.712  0.288  0.378-  14 2.43  26 2.44  24 2.48  12 2.48  44 2.48  32 2.49  30 2.82  10 2.82
                            40 2.86  16 2.87
  29  0.837  0.413  0.095-  31 2.48  43 2.48  17 2.48  25 2.48  13 2.48  45 2.48  27 2.87  47 2.87
                            41 2.87   1 2.87
  30  0.837  0.413  0.285-  32 2.43  44 2.43  43 2.43  31 2.44  46 2.48  14 2.48  26 2.48  18 2.49
                            28 2.82  47 2.83  48 2.83  27 2.83  42 2.86   2 2.87
  31  0.962  0.288  0.191-  30 2.44   2 2.44  29 2.48   1 2.48  19 2.48  27 2.48  15 2.48  47 2.48
                            18 2.83  14 2.83  13 2.87  17 2.87  43 2.87   3 2.87
  32  0.962  0.288  0.378-   2 2.42  30 2.43  48 2.48  20 2.48  28 2.49  16 2.49  18 2.82  14 2.82
                            44 2.86   4 2.87
  33  0.087  0.663  0.095-  35 2.48  63 2.48  45 2.48  37 2.48  49 2.48  17 2.48  51 2.87  47 2.87
                            61 2.87  21 2.87
  34  0.088  0.662  0.285-  36 2.42  64 2.43  35 2.44  63 2.45  18 2.48  38 2.48  46 2.48  50 2.49
                            48 2.82  52 2.82  47 2.83  51 2.83  22 2.87  62 2.88
  35  0.212  0.538  0.191-  22 2.44  34 2.44  33 2.48  21 2.48  39 2.48  47 2.48  19 2.48  51 2.48
                            38 2.82  18 2.83  17 2.87  37 2.87  23 2.87  63 2.87
  36  0.213  0.537  0.378-  34 2.42  22 2.44  48 2.48  20 2.48  40 2.48  52 2.49  18 2.82  38 2.83
                            24 2.86  64 2.87
  37  0.337  0.663  0.095-  39 2.48  51 2.48  41 2.48  33 2.48  21 2.48  53 2.48  35 2.87  55 2.87
                            49 2.87  25 2.87
  38  0.338  0.661  0.284-  40 2.43  39 2.43  52 2.43  51 2.44  22 2.48  42 2.48  34 2.48  54 2.49
                            35 2.82  36 2.83  55 2.83  56 2.83  26 2.85  50 2.88
  39  0.462  0.538  0.191-  26 2.43  38 2.43  37 2.48  25 2.48  35 2.48  43 2.48  23 2.48  55 2.48
                            22 2.82  42 2.83  41 2.87  21 2.87  51 2.87  27 2.87
  40  0.463  0.537  0.378-  38 2.43  26 2.44  24 2.48  56 2.48  44 2.48  36 2.48  42 2.83  22 2.83
                            28 2.86  52 2.86
  41  0.587  0.663  0.095-  43 2.48  55 2.48  45 2.48  37 2.48  25 2.48  57 2.48  39 2.87  59 2.87
                            53 2.87  29 2.87
  42  0.588  0.663  0.284-  44 2.43  56 2.43  43 2.44  55 2.44  26 2.48  38 2.48  46 2.48  58 2.48
                            60 2.82  59 2.83  40 2.83  39 2.83  30 2.86  54 2.86
  43  0.712  0.538  0.191-  30 2.43  42 2.44  41 2.48  29 2.48  39 2.48  47 2.48  27 2.48  59 2.48
                            26 2.82  46 2.83  45 2.87  25 2.87  55 2.87  31 2.87
  44  0.712  0.538  0.378-  30 2.43  42 2.43  28 2.48  60 2.48  40 2.48  48 2.49  46 2.82  26 2.83
                            56 2.85  32 2.86
  45  0.837  0.663  0.095-  47 2.48  59 2.48  33 2.48  41 2.48  29 2.48  61 2.48  43 2.87  63 2.87
                            57 2.87  17 2.87
  46  0.838  0.662  0.285-  60 2.43  48 2.43  47 2.44  59 2.44  30 2.48  42 2.48  34 2.48  62 2.48
                            44 2.82  64 2.83  63 2.83  43 2.83  18 2.87  58 2.87
  47  0.962  0.538  0.191-  46 2.44  18 2.44  45 2.48  17 2.48  35 2.48  43 2.48  31 2.48  63 2.48
                            30 2.83  34 2.83  29 2.87  33 2.87  59 2.87  19 2.87
  48  0.963  0.538  0.378-  46 2.43  18 2.44  32 2.48  36 2.48  64 2.48  44 2.49  34 2.82  30 2.83
                            20 2.87  60 2.87
  49  0.087  0.913  0.095-  15 2.48  51 2.48  53 2.48  61 2.48  33 2.48   1 2.48   3 2.87  63 2.87
                            13 2.87  37 2.87
  50  0.087  0.912  0.285-  52 2.42  16 2.43  51 2.45  15 2.45  62 2.48  54 2.48   2 2.48  34 2.49
                             4 2.81  64 2.81  63 2.84   3 2.84  14 2.87  38 2.88
  51  0.212  0.788  0.191-  38 2.44  50 2.45  49 2.48  37 2.48  55 2.48  63 2.48   3 2.48  35 2.48
                            54 2.83  34 2.83  53 2.87  33 2.87  15 2.87  39 2.87
  52  0.213  0.787  0.378-  50 2.42  38 2.43   4 2.48  64 2.48  56 2.49  36 2.49  54 2.81  34 2.82
                            40 2.86  16 2.88
  53  0.337  0.913  0.095-   3 2.48  55 2.48  49 2.48  57 2.48  37 2.48   5 2.48   7 2.87  51 2.87
                             1 2.87  41 2.87
  54  0.338  0.912  0.285-   4 2.43  56 2.43  55 2.44   3 2.45  58 2.48  50 2.48   6 2.49  38 2.49
                             8 2.81  52 2.81  51 2.83   7 2.84  42 2.86   2 2.87
  55  0.462  0.788  0.191-  42 2.44  54 2.44  53 2.48  41 2.48  51 2.48  59 2.48   7 2.48  39 2.48
                            38 2.83  58 2.84  37 2.87  57 2.87   3 2.87  43 2.87
  56  0.464  0.787  0.378-  54 2.43  42 2.43  60 2.48  40 2.48   8 2.49  52 2.49  58 2.82  38 2.83
                            44 2.85   4 2.88
  57  0.587  0.913  0.095-   7 2.48  59 2.48  53 2.48  61 2.48  41 2.48   9 2.48  11 2.87  55 2.87
                             5 2.87  45 2.87
  58  0.587  0.913  0.285-   8 2.42  60 2.42   7 2.45  59 2.45  62 2.48  54 2.48  42 2.48  10 2.48
                            56 2.82  12 2.82  11 2.83  55 2.84   6 2.87  46 2.87
  59  0.712  0.788  0.191-  46 2.44  58 2.45  57 2.48  45 2.48  55 2.48  63 2.48  11 2.48  43 2.48
                            42 2.83  62 2.84  41 2.87  61 2.87   7 2.87  47 2.87
[...]
   0.421E+00 0.133E+01 0.628E+03   -.734E+00 -.177E+01 -.627E+03   0.177E-01 0.137E+00 -.523E+00   0.261E+00 0.333E+00 -.160E+01
   0.464E+00 -.422E+00 -.186E+04   -.230E+00 0.264E+00 0.185E+04   -.251E-01 0.495E-01 0.321E+01   -.176E+00 0.884E-01 0.258E+01
   0.861E-01 0.157E+01 0.185E+04   0.710E-01 -.755E+00 -.184E+04   0.995E-01 -.574E+00 -.168E+01   -.263E+00 -.249E-02 -.128E+01
   -.624E+00 0.307E+01 -.618E+03   0.759E+00 -.314E+01 0.616E+03   0.276E-01 0.791E-01 0.246E+00   -.161E+00 -.137E-01 0.164E+01
   -.636E+00 0.196E+01 0.629E+03   0.113E+01 -.266E+01 -.626E+03   -.157E+00 0.359E+00 -.914E+00   -.243E+00 0.356E+00 -.171E+01
   -.592E+00 0.164E+01 -.186E+04   0.658E+00 -.146E+01 0.185E+04   0.906E-01 0.140E-01 0.335E+01   -.143E+00 -.198E+00 0.246E+01
   0.943E+00 0.486E+00 0.185E+04   0.370E+00 -.804E+00 -.184E+04   -.524E+00 0.584E+00 -.295E+01   -.710E+00 0.876E-01 -.134E+01
   -.121E+01 0.445E+01 -.618E+03   0.109E+01 -.432E+01 0.616E+03   0.142E-01 0.951E-02 0.268E+00   0.110E+00 -.146E+00 0.181E+01
   -.775E+00 0.236E+01 0.626E+03   0.102E+01 -.261E+01 -.625E+03   -.878E-01 0.165E+00 -.471E+00   -.197E+00 0.175E+00 -.106E+01
   0.982E+00 -.154E+00 -.186E+04   -.108E+01 0.111E+00 0.185E+04   -.271E-01 0.425E-01 0.330E+01   0.144E+00 -.130E-01 0.234E+01
   -.624E+00 -.153E+00 0.185E+04   -.139E+00 0.259E-01 -.184E+04   0.700E-01 0.165E-01 -.166E+01   0.443E+00 0.122E+00 -.133E+01
   0.315E-01 -.558E+00 -.618E+03   -.216E+00 0.643E+00 0.616E+03   -.351E-02 0.134E-01 0.232E+00   0.181E+00 -.870E-01 0.193E+01
   0.129E+01 0.936E+00 0.631E+03   -.127E+01 -.165E+01 -.629E+03   -.731E-01 0.304E+00 -.993E+00   0.106E+00 0.274E+00 -.166E+01
   -.140E+01 -.176E+00 -.186E+04   0.120E+01 0.185E+00 0.185E+04   0.684E-01 0.216E-02 0.334E+01   0.140E+00 0.135E-01 0.246E+01
   0.105E+01 0.316E-01 0.185E+04   -.378E+00 0.852E-01 -.184E+04   -.288E+00 0.327E+00 -.200E+01   -.353E+00 -.414E+00 -.130E+01
   0.220E+01 -.978E-01 -.617E+03   -.199E+01 0.235E+00 0.615E+03   0.416E-01 -.196E-01 0.182E+00   -.263E+00 -.104E+00 0.189E+01
   0.799E+00 0.201E+01 0.633E+03   -.588E+00 -.184E+01 -.630E+03   0.704E-01 0.659E-01 -.148E+01   -.159E+00 -.234E+00 -.191E+01
   0.218E+01 0.102E+01 -.186E+04   -.174E+01 -.102E+01 0.185E+04   -.473E-01 -.142E-01 0.336E+01   -.380E+00 0.576E-02 0.254E+01
   0.385E+00 0.273E+00 0.185E+04   0.144E+00 -.451E-01 -.184E+04   0.239E-01 -.104E-01 -.201E+01   -.278E+00 -.229E+00 -.143E+01
   -.345E+00 0.552E+00 -.615E+03   0.512E+00 -.468E+00 0.613E+03   -.476E-02 -.251E-02 0.192E+00   -.168E+00 -.801E-01 0.184E+01
   -.877E+00 0.186E+01 0.632E+03   0.119E+01 -.199E+01 -.630E+03   -.414E-01 0.426E+00 -.103E+01   -.248E+00 -.320E+00 -.159E+01
   -.127E+01 0.485E+00 -.186E+04   0.136E+01 -.472E+00 0.185E+04   -.108E-01 -.117E-02 0.330E+01   -.695E-01 0.267E-01 0.247E+01
   -.872E+00 0.994E-01 0.185E+04   0.373E+00 -.105E+00 -.184E+04   0.131E+00 -.157E+00 -.172E+01   0.199E+00 0.190E+00 -.151E+01
   -.175E+01 0.338E+00 -.619E+03   0.154E+01 -.292E+00 0.617E+03   -.290E-01 0.166E-01 0.122E+00   0.252E+00 -.796E-01 0.182E+01
   -.967E+00 0.151E+01 0.629E+03   0.834E+00 -.188E+01 -.628E+03   -.253E+00 0.293E+00 -.854E+00   0.287E+00 0.128E+00 -.126E+01
   0.127E+01 0.688E+00 -.186E+04   -.156E+01 -.667E+00 0.185E+04   -.373E-01 0.953E-02 0.321E+01   0.328E+00 -.575E-01 0.240E+01
   0.428E+00 0.858E+00 0.185E+04   -.145E+00 0.741E+00 -.184E+04   0.151E+00 -.612E+00 -.328E+01   -.263E+00 -.946E+00 -.136E+01
   0.102E+01 -.360E+01 -.622E+03   -.982E+00 0.381E+01 0.620E+03   -.441E-01 -.562E-01 0.181E+00   0.112E-01 -.144E+00 0.203E+01
   0.155E+01 -.144E+01 0.631E+03   -.167E+01 0.234E+01 -.628E+03   0.256E+00 -.346E+00 -.990E+00   -.192E+00 -.430E+00 -.159E+01
   -.457E+00 -.553E+00 -.186E+04   0.527E+00 0.631E+00 0.185E+04   0.389E-01 -.451E-02 0.325E+01   -.121E+00 -.739E-01 0.249E+01
   -.177E+00 0.370E+00 0.185E+04   -.351E+00 0.853E+00 -.184E+04   0.391E+00 -.824E+00 -.307E+01   0.201E+00 -.482E+00 -.137E+01
   0.167E+01 -.475E+01 -.618E+03   -.151E+01 0.469E+01 0.615E+03   0.584E-03 -.107E-01 0.272E+00   -.157E+00 0.768E-01 0.197E+01
   0.182E+00 -.137E+01 0.633E+03   -.353E+00 0.191E+01 -.631E+03   0.234E+00 -.349E+00 -.109E+01   -.135E+00 -.109E+00 -.150E+01
   0.690E+00 -.558E+00 -.186E+04   -.382E+00 0.522E+00 0.185E+04   -.430E-02 0.175E-01 0.333E+01   -.270E+00 -.120E-01 0.253E+01
   -.296E+00 -.167E+01 0.185E+04   0.153E+00 0.668E+00 -.184E+04   -.701E-02 0.502E+00 -.146E+01   0.153E+00 0.177E+00 -.154E+01
   -.179E+00 -.270E+01 -.618E+03   0.300E+00 0.265E+01 0.616E+03   -.438E-01 -.762E-01 0.284E+00   -.840E-01 0.129E+00 0.185E+01
   -.126E+01 -.158E+01 0.632E+03   0.138E+01 0.126E+01 -.629E+03   -.610E-01 -.390E-01 -.131E+01   0.597E-02 0.135E+00 -.157E+01
   -.927E+00 0.204E+00 -.186E+04   0.778E+00 -.336E+00 0.185E+04   0.208E-01 0.238E-01 0.335E+01   0.956E-01 0.889E-01 0.255E+01
   0.606E-01 -.295E+00 0.185E+04   0.342E+00 0.558E+00 -.184E+04   -.145E+00 -.127E-02 -.289E+01   -.106E+00 -.263E+00 -.148E+01
   -.192E+01 -.252E+01 -.620E+03   0.180E+01 0.260E+01 0.618E+03   -.122E+00 -.790E-01 0.212E+00   0.221E+00 -.956E-02 0.199E+01
   -.808E+00 -.626E+00 0.630E+03   0.585E+00 0.149E+01 -.628E+03   -.102E+00 -.387E+00 -.989E+00   0.311E+00 -.316E+00 -.162E+01
   0.803E-01 -.822E+00 -.186E+04   -.341E+00 0.863E+00 0.185E+04   -.362E-01 -.794E-02 0.335E+01   0.283E+00 -.317E-01 0.248E+01
   0.246E+00 0.303E-01 0.185E+04   -.915E-01 0.470E-01 -.184E+04   0.346E-01 0.400E-02 -.316E+01   -.159E+00 -.855E-01 -.117E+01
   0.543E+00 -.946E-02 -.625E+03   -.626E+00 -.138E-01 0.623E+03   0.132E-01 -.610E-02 0.258E+00   0.647E-01 0.189E-01 0.201E+01
   0.146E+01 -.271E+01 0.626E+03   -.153E+01 0.286E+01 -.625E+03   0.700E-01 -.155E+00 -.445E+00   0.599E-01 -.110E+00 -.100E+01
   -.763E-01 0.698E+00 -.186E+04   0.121E+00 -.448E+00 0.185E+04   0.318E-01 -.264E-01 0.326E+01   -.853E-01 -.181E+00 0.241E+01
   -.567E+00 0.151E+00 0.185E+04   -.335E+00 0.173E+00 -.184E+04   0.244E+00 -.241E+00 -.344E+01   0.658E+00 -.218E-01 -.134E+01
   0.195E+01 -.673E+00 -.623E+03   -.195E+01 0.567E+00 0.621E+03   0.368E-01 -.388E-02 0.193E+00   -.441E-01 0.124E+00 0.195E+01
   0.260E+00 -.215E+01 0.629E+03   -.604E+00 0.251E+01 -.627E+03   0.123E+00 -.310E+00 -.849E+00   0.109E+00 -.494E-01 -.148E+01
   0.162E+01 -.144E+01 -.186E+04   -.160E+01 0.128E+01 0.185E+04   -.538E-01 -.506E-01 0.331E+01   0.153E-01 0.218E+00 0.247E+01
   -.957E-01 -.207E+00 0.185E+04   0.914E-01 -.314E-01 -.184E+04   -.160E-01 0.195E-01 -.308E+01   0.308E-01 0.199E+00 -.146E+01
   -.757E+00 0.502E-01 -.622E+03   0.833E+00 -.161E+00 0.620E+03   -.787E-02 -.104E-01 0.272E+00   -.625E-01 0.120E+00 0.201E+01
   -.934E+00 -.168E+01 0.628E+03   0.109E+01 0.167E+01 -.626E+03   -.317E-01 -.105E+00 -.551E+00   -.133E+00 0.102E+00 -.155E+01
   -.200E+01 -.937E+00 -.186E+04   0.196E+01 0.869E+00 0.185E+04   0.129E-01 -.591E-01 0.326E+01   0.267E-01 0.121E+00 0.256E+01
   0.391E+00 -.470E+00 0.185E+04   0.336E+00 -.152E+00 -.184E+04   -.196E+00 0.110E+00 -.337E+01   -.542E+00 0.395E+00 -.129E+01
   -.183E+01 0.444E+00 -.624E+03   0.181E+01 -.439E+00 0.622E+03   -.298E-01 -.193E-01 0.201E+00   0.572E-01 -.129E-02 0.189E+01
   -.659E+00 -.156E+01 0.625E+03   0.723E+00 0.170E+01 -.624E+03   -.597E-01 -.664E-01 -.440E+00   -.296E-01 -.125E+00 -.115E+01
   0.259E+00 -.375E+00 -.186E+04   -.237E+00 0.575E+00 0.185E+04   -.670E-01 -.303E-01 0.339E+01   0.307E-01 -.168E+00 0.244E+01
   -.376E-01 -.764E-01 -.266E+02   -.208E-12 0.756E-13 -.909E-12   0.808E-01 -.196E-02 0.129E+01   -.413E-01 0.733E-01 0.250E+02

 POSITION                                       TOTAL-FORCE (eV/Angst)
      1.40594      1.52230      2.00000        -0.154126     -0.106290      0.385297
      1.40225      1.52459      6.00927         0.010047     -0.001170     -0.005014
      2.23340      0.35210      4.02685         0.025803      0.051585     -0.457440
      2.22538      0.34770      7.97191        -0.006948     -0.016896     -0.028157
      3.88832      1.52230      2.00000        -0.207854     -0.107176      0.492660
      3.88524      1.52577      6.00167         0.027366      0.009557     -0.034520
      4.71578      0.35210      4.02685        -0.035200      0.031081     -0.512001
      4.70905      0.35249      7.95767         0.033428     -0.019430     -0.015767
      6.37069      1.52230      2.00000        -0.005967      0.239257      0.478396
      6.36734      1.52668      5.99608         0.002493     -0.011452     -0.004170
      7.19815      0.35210      4.02685         0.098994      0.008338     -0.323607
      7.19106      0.36326      7.97140         0.013253      0.001088     -0.017973
      8.85307      1.52230      2.00000         0.077744      0.353441      0.373987
      8.84982      1.53006      5.99853        -0.000433     -0.004584     -0.015615
      9.68053      0.35210      4.02685        -0.039742      0.082312     -0.436532
      9.67541      0.35702      7.96886         0.020453     -0.013707     -0.004467
      2.23340      3.86271      2.00000        -0.250326      0.011019      0.393176
      2.23470      3.85953      5.99716        -0.007351      0.011089     -0.021740
      3.06086      2.69251      4.02685         0.050173     -0.138062     -0.435599
      3.05760      2.68538      7.96942         0.003215      0.024648     -0.017584
      4.71578      3.86271      2.00000         0.034605      0.030124      0.486184
      4.71925      3.85809      5.99117        -0.012895      0.013110     -0.017255
      5.54324      2.69251      4.02685         0.122900      0.004473     -0.412420
      5.54717      2.69611      7.96574         0.008406     -0.011535     -0.018943
      7.19815      3.86271      2.00000         0.274327     -0.011072      0.129731
      7.19919      3.86559      5.98868        -0.005706      0.001125     -0.026632
      8.02561      2.69251      4.02685         0.023972     -0.026663     -0.247109
      8.02342      2.69856      7.96181         0.005413      0.039113     -0.020472
      9.68053      3.86271      2.00000        -0.169824      0.027781      1.182281
      9.67903      3.86700      5.99844         0.010358     -0.017427     -0.014883
     10.50799      2.69251      4.02685        -0.098778      0.056605     -0.577408
     10.50972      2.69940      7.95947         0.000489     -0.026351     -0.016132
      3.06086      6.20312      2.00000         0.170476      0.041730      0.434683
      3.06458      6.19705      6.00800         0.000459      0.009863     -0.029666
      3.88832      5.03291      4.02685        -0.050802      0.119223     -0.328842
      3.88861      5.02255      7.96276        -0.011256     -0.000350     -0.031029
      5.54324      6.20312      2.00000         0.064241     -0.082273      0.408001
      5.54688      6.19243      5.99633        -0.004107      0.009754     -0.015377
      6.37069      5.03291      4.02685        -0.071794      0.083026     -0.263019
      6.37174      5.03066      7.96395         0.033524     -0.030830     -0.023749
      8.02561      6.20312      2.00000         0.002758     -0.324596      0.483921
      8.02846      6.20277      5.99714        -0.007169      0.002900     -0.011695
      8.85307      5.03291      4.02685         0.060194     -0.218237     -0.617713
      8.85424      5.03583      7.96418        -0.032969     -0.018967     -0.008695
     10.50799      6.20312      2.00000         0.151746     -0.001873      0.414198
     10.51125      6.20116      6.00200        -0.025912     -0.005789     -0.021213
     11.33544      5.03291      4.02685        -0.014112      0.163989     -0.401687
     11.34009      5.03302      7.96722        -0.014598      0.001096     -0.016535
      3.88832      8.54352      2.00000         0.030447     -0.004128      0.405994
      3.88733      8.54248      6.01747        -0.005525     -0.010415     -0.010087
      4.71578      7.37332      4.02685         0.055458     -0.115413     -0.471994
      4.72104      7.36568      7.96349        -0.008105      0.042225     -0.002590
      6.37069      8.54352      2.00000         0.000048      0.061598      0.386177
      6.37172      8.53979      6.00981        -0.001188      0.013368     -0.024767
      7.19815      7.37332      4.02685        -0.112799     -0.005510     -0.301251
      7.20688      7.36547      7.97007        -0.021400      0.006949     -0.003068
      8.85307      8.54352      2.00000         0.010536     -0.019696      0.465994
      8.85253      8.54541      6.00940         0.005949     -0.000303     -0.029093
      9.68053      7.37332      4.02685        -0.011855     -0.011328     -0.485463
      9.68276      7.37412      7.96337         0.003344     -0.006656     -0.025379
     11.33544      8.54352      2.00000        -0.011128     -0.116240      0.399833
     11.33277      8.54636      6.01281         0.007284     -0.016138     -0.009979
     12.16290      7.37332      4.02685        -0.025884     -0.051524     -0.476901
     12.16721      7.37371      7.97212        -0.014153      0.000616     -0.029280
    total drift:                                0.001903     -0.005099     -0.266032

  FREE ENERGIE OF THE ION-ELECTRON SYSTEM (eV)
  free  energy   TOTEN  =      -509.01205653 eV

  energy  without entropy=     -509.01205653  energy(sigma->0) =     -509.01205653

 stress matrix after NEB project (eV)
    -36.55858      5.77290      0.03945
      5.77290    -38.09352     -0.12597
      0.03945     -0.12597     -1.79287
  FORCES: max atom, RMS     0.051365    0.021114
  FORCE total and by dimension    0.168915    0.042225
  Stress total and by dimension   53.456039   38.093518

 total charge

[...]

 magnetization (x)

# of ion       s       p       d       tot
    1        0.012  -0.006   2.607   2.613
    2       -0.015  -0.053   2.438   2.370
    3       -0.013  -0.051   2.463   2.399
    4       -0.006  -0.012   2.681   2.664
    5        0.018   0.018   2.495   2.530
    6       -0.015  -0.053   2.432   2.364
    7       -0.013  -0.045   2.436   2.378
    8       -0.005  -0.013   2.675   2.657
    9       -0.048  -0.047  -2.468  -2.563
   10       -0.014  -0.053   2.455   2.388
   11       -0.008  -0.039   2.365   2.318
   12       -0.005  -0.012   2.680   2.663
   13        0.013   0.007   2.573   2.594
   14       -0.015  -0.054   2.438   2.369
   15       -0.014  -0.050   2.490   2.425
   16       -0.004  -0.013   2.690   2.674
   17       -0.045  -0.051  -2.522  -2.619
   18       -0.015  -0.050   2.479   2.414
   19       -0.007  -0.033   2.284   2.244
   20       -0.004  -0.012   2.678   2.662
   21       -0.037  -0.029  -2.500  -2.566
   22       -0.014  -0.051   2.449   2.383
   23       -0.000  -0.017   2.139   2.122
   24       -0.006  -0.013   2.662   2.644
   25       -0.029  -0.021  -2.620  -2.669
   26       -0.015  -0.048   2.462   2.399
   27       -0.006  -0.024   2.303   2.273
   28       -0.005  -0.013   2.653   2.635
   29       -0.013  -0.005  -0.473  -0.491
   30       -0.015  -0.052   2.444   2.377
   31       -0.008  -0.034   2.436   2.394
   32       -0.006  -0.013   2.654   2.635
   33        0.013  -0.002   2.592   2.603
   34       -0.015  -0.054   2.456   2.387
   35       -0.006  -0.032   2.286   2.248
   36       -0.006  -0.012   2.668   2.650
   37        0.017   0.013   2.508   2.539
   38       -0.015  -0.054   2.427   2.359
   39       -0.006  -0.024   2.259   2.229
   40       -0.005  -0.012   2.662   2.645
   41       -0.050  -0.050  -2.459  -2.559
   42       -0.015  -0.052   2.442   2.375
   43       -0.002  -0.020   2.292   2.270
   44       -0.006  -0.013   2.650   2.631
   45        0.014   0.015   2.598   2.627
   46       -0.015  -0.054   2.434   2.364
   47       -0.007  -0.033   2.325   2.286
   48       -0.004  -0.013   2.671   2.654
   49       -0.002  -0.024   2.681   2.655
   50       -0.016  -0.054   2.454   2.385
   51       -0.013  -0.050   2.487   2.424
   52       -0.004  -0.013   2.686   2.670
   53        0.004  -0.008   2.673   2.669
   54       -0.015  -0.055   2.475   2.406
   55       -0.008  -0.039   2.341   2.294
   56       -0.005  -0.011   2.675   2.659
   57        0.017  -0.000   2.580   2.597
   58       -0.016  -0.051   2.425   2.358
   59       -0.013  -0.045   2.438   2.380
   60       -0.005  -0.013   2.685   2.668
   61        0.003  -0.006   2.664   2.662
   62       -0.015  -0.055   2.474   2.404
   63       -0.013  -0.051   2.477   2.413
   64       -0.005  -0.013   2.694   2.676
tot         -0.571  -1.820 132.697 130.305

 BZINTS: Fermi energy: -0.627768;512.000000 electrons
         Band energy:***********;  BLOECHL correction: -0.015596