 vasp.5.4.4.18Apr17-6-g9f103f2a35 (build Dec 15 2018 21:27:11) complex

 executed on             LinuxIFC date 2022.03.01  23:04:12

 INCAR:
 POTCAR:    PAW_PBE Fe 06Sep2000
 POTCAR:    PAW_PBE O 08Apr2002

 POTCAR:    PAW_PBE Fe 06Sep2000
   VRHFIN =Fe:  d7 s1

   TITEL  = PAW_PBE Fe 06Sep2000
   POMASS =   55.847; ZVAL   =    8.000    mass and valenz
   ENMAX  =  267.882; ENMIN  =  200.911 eV

 POTCAR:    PAW_PBE O 08Apr2002
   VRHFIN =O: s2p4

   TITEL  = PAW_PBE O 08Apr2002
   POMASS =   16.000; ZVAL   =    6.000    mass and valenz
   ENMAX  =  400.000; ENMIN  =  300.000 eV

 Optimization of the real space projectors (new method)

 maximal supplied QI-value         = 16.25
 optimisation between [QCUT,QGAM] = [ 11.54, 23.24] = [ 37.28,151.24] Ry
 Optimized for a Real-space Cutoff    1.53 Angstroem

   l    n(q)    QCUT    max X(q) W(low)/X(q) W(high)/X(q)  e(spline)
   2     10    11.539    80.901    0.11E-03    0.14E-03    0.21E-06
   2     10    11.539    75.754    0.11E-03    0.14E-03    0.22E-06
   0     11    11.539    58.752    0.52E-04    0.18E-04    0.33E-06
   0     11    11.539    30.679    0.44E-04    0.16E-04    0.30E-06
   1     10    11.539    17.977    0.53E-04    0.29E-04    0.13E-06
   1     10    11.539    13.559    0.44E-04    0.25E-04    0.11E-06
 Optimization of the real space projectors (new method)

 maximal supplied QI-value         = 24.76
 optimisation between [QCUT,QGAM] = [ 11.64, 23.27] = [ 37.91,151.63] Ry
 Optimized for a Real-space Cutoff    1.14 Angstroem

   l    n(q)    QCUT    max X(q) W(low)/X(q) W(high)/X(q)  e(spline)
   0      8    11.635    20.381    0.10E-03    0.33E-03    0.24E-06
   0      8    11.635    15.268    0.11E-03    0.35E-03    0.26E-06
   1      7    11.635     5.964    0.24E-03    0.31E-03    0.30E-06
   1      7    11.635     5.382    0.22E-03    0.25E-03    0.26E-06
  PAW_PBE Fe 06Sep2000                  :
  PAW_PBE O 08Apr2002                   :

 POSCAR: POSCAR
  positions in direct lattice
  velocities in cartesian coordinates
 exchange correlation table for  LEXCH =        8
   RHO(1)=    0.500       N(1)  =     2000
   RHO(2)=  100.500       N(2)  =     4000

 VTST: version 3.2, (02/03/18)

 CHAIN: initializing optimizer

 OPT: Using VASP Dynamics algorithm
 CHAIN: Read ICHAIN            0

 POSCAR: POSCAR
  positions in direct lattice
  velocities in cartesian coordinates

 ion  position               nearest neighbor table
   1  0.087  0.163  0.095-   5 2.48  13 2.48  17 2.48  49 2.48  31 2.48   3 2.48  29 2.87  53 2.87
                            15 2.87  19 2.87
   2  0.087  0.162  0.286-  32 2.45   4 2.46  31 2.46   3 2.46  50 2.48  14 2.48  18 2.48   6 2.48
                            16 2.80  20 2.80  15 2.85  19 2.85  54 2.87  30 2.87
   3  0.212  0.038  0.191-   2 2.46  54 2.46  15 2.48   7 2.48  51 2.48  19 2.48  53 2.48   1 2.48
                             6 2.82  50 2.83  31 2.87  55 2.87  49 2.87   5 2.87
   4  0.216  0.041  0.381-  65 2.19  54 2.45   2 2.46  16 2.46  52 2.47  20 2.51   8 2.51   6 2.84
                            56 2.87  32 2.87  50 2.91
   5  0.337  0.163  0.095-   1 2.48   9 2.48  21 2.48  53 2.48   7 2.48  19 2.48  17 2.87  57 2.87
                             3 2.87  23 2.87
   6  0.337  0.162  0.284-   7 2.43  19 2.43  54 2.48  10 2.48   2 2.48  22 2.48  20 2.50   8 2.50
                             3 2.82  23 2.82   4 2.84  24 2.84  58 2.87  18 2.87
   7  0.462  0.038  0.191-   6 2.43  58 2.43  11 2.48   3 2.48  55 2.48  23 2.48  57 2.48   5 2.48
                            54 2.85  10 2.85  19 2.87  59 2.87  53 2.87   9 2.87
   8  0.472  0.028  0.377-  65 1.85  58 2.37  12 2.47  56 2.47   6 2.50  24 2.51   4 2.51  60 2.65
                            10 2.80  54 2.80  20 3.08
   9  0.587  0.163  0.095-   5 2.48  13 2.48  25 2.48  57 2.48  11 2.48  23 2.48  21 2.87  61 2.87
                             7 2.87  27 2.87
  10  0.587  0.163  0.286-  12 2.45  24 2.46  23 2.47  11 2.47  58 2.48  14 2.48   6 2.48  26 2.48
                            28 2.80   8 2.80   7 2.85  27 2.85  22 2.87  62 2.87
  11  0.712  0.038  0.191-  62 2.47  10 2.47  15 2.48   7 2.48  59 2.48  27 2.48  61 2.48   9 2.48
                            14 2.82  58 2.82  23 2.87  63 2.87  57 2.87  13 2.87
  12  0.716  0.041  0.381-  66 2.19  10 2.45  62 2.46   8 2.47  60 2.47  28 2.51  16 2.51  14 2.84
                            24 2.87  64 2.87  58 2.91
  13  0.837  0.163  0.095-   1 2.48   9 2.48  29 2.48  61 2.48  15 2.48  27 2.48  49 2.87  25 2.87
                            11 2.87  31 2.87
  14  0.837  0.163  0.284-  27 2.43  15 2.43  62 2.48  10 2.48   2 2.48  30 2.48  16 2.50  28 2.50
                            11 2.82  31 2.82  32 2.84  12 2.84  26 2.87  50 2.87
  15  0.962  0.038  0.191-  14 2.43  50 2.43   3 2.48  11 2.48  31 2.48  63 2.48  13 2.48  49 2.48
                             2 2.85  62 2.85  27 2.87  51 2.87   1 2.87  61 2.87
  16  0.972  0.028  0.377-  66 1.85  50 2.37   4 2.46  64 2.47  14 2.50  32 2.51  12 2.51  52 2.65
                            62 2.79   2 2.80  28 3.09
  17  0.087  0.413  0.095-  21 2.48  29 2.48   1 2.48  33 2.48  19 2.48  47 2.48  45 2.87   5 2.87
                            31 2.87  35 2.87
  18  0.087  0.413  0.284-  48 2.37  20 2.37  19 2.43  47 2.43  30 2.48   2 2.48  34 2.48  22 2.48
                            31 2.82  35 2.82  46 2.87   6 2.87  32 2.91  36 2.91
  19  0.212  0.288  0.191-   6 2.43  18 2.43  23 2.48  31 2.48   3 2.48  35 2.48   5 2.48  17 2.48
                            22 2.85   2 2.85   7 2.87  47 2.87  21 2.87   1 2.87
  20  0.203  0.297  0.377-  65 1.85  18 2.37  32 2.47  36 2.47   6 2.50   4 2.51  24 2.51  48 2.65
                             2 2.80  22 2.80   8 3.08
  21  0.337  0.413  0.095-  17 2.48  25 2.48   5 2.48  37 2.48  35 2.48  23 2.48   9 2.87  33 2.87
                            19 2.87  39 2.87
  22  0.337  0.413  0.286-  24 2.45  36 2.45  35 2.47  23 2.47  18 2.48  26 2.48   6 2.48  38 2.48
                            40 2.80  20 2.80  19 2.85  39 2.85  10 2.87  34 2.87
  23  0.462  0.288  0.191-  10 2.47  22 2.47  19 2.48  27 2.48   7 2.48  39 2.48  21 2.48   9 2.48
                             6 2.82  26 2.82  35 2.87  11 2.87   5 2.87  25 2.87
  24  0.459  0.285  0.381-  65 2.20  22 2.45  10 2.46  28 2.47  40 2.47  20 2.51   8 2.51   6 2.84
                            36 2.86  12 2.87  26 2.91
  25  0.587  0.413  0.095-  21 2.48  29 2.48   9 2.48  41 2.48  39 2.48  27 2.48  13 2.87  37 2.87
                            23 2.87  43 2.87
  26  0.587  0.413  0.284-  28 2.37  40 2.37  39 2.43  27 2.43  30 2.48  42 2.48  10 2.48  22 2.48
                            43 2.82  23 2.82  14 2.87  38 2.87  44 2.91  24 2.91
  27  0.712  0.288  0.191-  14 2.43  26 2.43  23 2.48  31 2.48  11 2.48  43 2.48  25 2.48  13 2.48
                            30 2.85  10 2.85  39 2.87  15 2.87   9 2.87  29 2.87
  28  0.703  0.297  0.377-  66 1.85  26 2.37  24 2.47  44 2.47  14 2.50  12 2.51  32 2.51  40 2.65
                            10 2.80  30 2.80  16 3.09
  29  0.837  0.413  0.095-  17 2.48  25 2.48  13 2.48  45 2.48  43 2.48  31 2.48   1 2.87  41 2.87
                            27 2.87  47 2.87
  30  0.837  0.413  0.286-  32 2.45  44 2.45  43 2.47  31 2.47  26 2.48  18 2.48  46 2.48  14 2.48
                            48 2.80  28 2.80  27 2.85  47 2.85  42 2.87   2 2.87
  31  0.962  0.288  0.191-   2 2.46  30 2.47  27 2.48  19 2.48  15 2.48  47 2.48   1 2.48  29 2.48
                            14 2.82  18 2.82  43 2.87   3 2.87  17 2.87  13 2.87
  32  0.959  0.284  0.381-  66 2.20   2 2.45  30 2.45  20 2.47  48 2.47  16 2.51  28 2.51  14 2.84
                             4 2.87  44 2.87  18 2.91
  33  0.087  0.663  0.095-  37 2.48  45 2.48  17 2.48  49 2.48  35 2.48  63 2.48  61 2.87  21 2.87
                            47 2.87  51 2.87
  34  0.087  0.663  0.286-  64 2.46  36 2.46  35 2.47  63 2.47  50 2.48  46 2.48  38 2.48  18 2.48
                            48 2.80  52 2.80  51 2.85  47 2.85  22 2.87  62 2.87
  35  0.212  0.538  0.191-  34 2.47  22 2.47  39 2.48  47 2.48  19 2.48  51 2.48  21 2.48  33 2.48
                            38 2.82  18 2.82  23 2.87  63 2.87  37 2.87  17 2.87
  36  0.216  0.541  0.381-  68 2.20  22 2.45  34 2.46  48 2.47  20 2.47  40 2.51  52 2.51  38 2.84
                            24 2.86  64 2.87  18 2.91
  37  0.337  0.663  0.095-  33 2.48  41 2.48  21 2.48  53 2.48  51 2.48  39 2.48  25 2.87  49 2.87
                            35 2.87  55 2.87
  38  0.337  0.663  0.284-  51 2.43  39 2.43  54 2.48  34 2.48  42 2.48  22 2.48  40 2.50  52 2.50
                            55 2.82  35 2.82  56 2.84  36 2.84  50 2.87  26 2.87
  39  0.462  0.538  0.191-  38 2.43  26 2.43  35 2.48  43 2.48  23 2.48  55 2.48  37 2.48  25 2.48
                            22 2.85  42 2.85  51 2.87  27 2.87  21 2.87  41 2.87
  40  0.472  0.528  0.377-  68 1.85  26 2.37  44 2.47  24 2.47  38 2.50  56 2.51  36 2.51  28 2.65
                            22 2.80  42 2.80  52 3.08
  41  0.587  0.663  0.095-  37 2.48  45 2.48  25 2.48  57 2.48  55 2.48  43 2.48  29 2.87  53 2.87
                            39 2.87  59 2.87
  42  0.588  0.663  0.286-  44 2.45  56 2.46  55 2.46  43 2.46  58 2.48  46 2.48  26 2.48  38 2.48
                            60 2.80  40 2.80  59 2.85  39 2.85  54 2.87  30 2.87
  43  0.712  0.538  0.191-  42 2.46  30 2.47  39 2.48  47 2.48  27 2.48  59 2.48  41 2.48  29 2.48
                            46 2.82  26 2.82  55 2.87  31 2.87  25 2.87  45 2.87
  44  0.716  0.541  0.381-  67 2.20  42 2.45  30 2.45  40 2.47  28 2.47  60 2.51  48 2.51  46 2.84
                            56 2.87  32 2.87  26 2.91
  45  0.837  0.663  0.095-  33 2.48  41 2.48  29 2.48  61 2.48  59 2.48  47 2.48  17 2.87  57 2.87
                            43 2.87  63 2.87
  46  0.838  0.663  0.284-  47 2.43  59 2.43  62 2.48  34 2.48  42 2.48  30 2.48  60 2.50  48 2.50
                            63 2.82  43 2.82  44 2.84  64 2.84  18 2.87  58 2.87
  47  0.962  0.538  0.191-  46 2.43  18 2.43  43 2.48  35 2.48  31 2.48  63 2.48  17 2.48  45 2.48
                            30 2.85  34 2.85  59 2.87  19 2.87  33 2.87  29 2.87
  48  0.972  0.528  0.377-  67 1.85  18 2.37  36 2.47  32 2.47  46 2.50  64 2.51  44 2.51  20 2.65
                            34 2.80  30 2.80  60 3.09
  49  0.087  0.913  0.095-  53 2.48  61 2.48   1 2.48  33 2.48  15 2.48  51 2.48  37 2.87  13 2.87
                             3 2.87  63 2.87
  50  0.087  0.912  0.284-  16 2.37  52 2.37  51 2.43  15 2.43  34 2.48  62 2.48   2 2.48  54 2.48
                            63 2.82   3 2.83  38 2.87  14 2.87   4 2.91  64 2.91
  51  0.212  0.788  0.191-  38 2.43  50 2.43  55 2.48  63 2.48   3 2.48  35 2.48  49 2.48  37 2.48
                            54 2.85  34 2.85  39 2.87  15 2.87  53 2.87  33 2.87
  52  0.203  0.797  0.377-  68 1.85  50 2.37  64 2.47   4 2.47  38 2.50  56 2.51  36 2.51  16 2.65
                            34 2.80  54 2.80  40 3.08
  53  0.337  0.913  0.095-  49 2.48  57 2.48   5 2.48  37 2.48  55 2.48   3 2.48  41 2.87   1 2.87
                             7 2.87  51 2.87
[...]
   -.332E+00 0.672E+00 0.730E+03   0.355E+00 -.703E+00 -.726E+03   -.112E-02 -.512E-02 -.361E+00   -.177E-01 0.281E-01 -.402E+01
   -.580E+02 0.806E+02 -.168E+04   0.592E+02 -.826E+02 0.168E+04   -.141E+01 0.196E+01 0.225E+01   0.138E+00 0.243E-01 0.151E+01
   -.441E-01 0.198E-01 0.191E+04   0.457E-01 0.106E-01 -.190E+04   0.388E-02 -.217E-03 -.359E+01   -.749E-02 -.264E-01 -.350E+01
   -.320E+00 0.272E-01 -.468E+03   0.375E+00 0.164E-01 0.468E+03   0.505E-02 0.552E-02 0.118E+00   -.502E-01 -.469E-01 -.488E-01
   0.138E+00 -.547E+00 0.730E+03   -.167E+00 0.590E+00 -.726E+03   -.517E-02 0.209E-02 -.359E+00   0.288E-01 -.419E-01 -.405E+01
   0.576E+02 -.817E+02 -.168E+04   -.588E+02 0.837E+02 0.168E+04   0.138E+01 -.197E+01 0.225E+01   -.139E+00 -.342E-01 0.150E+01
   0.157E-01 0.833E-02 0.191E+04   -.303E-03 0.417E-03 -.190E+04   -.200E-02 -.151E-02 -.352E+01   -.119E-01 -.851E-02 -.350E+01
   0.143E-01 0.134E-01 -.500E+03   0.225E-01 -.149E-01 0.499E+03   0.408E-02 -.283E-02 0.490E+00   -.404E-01 0.469E-02 -.233E-01
   -.136E+00 -.211E+00 0.725E+03   0.238E+00 0.261E+00 -.721E+03   -.359E-01 -.259E-01 -.528E+00   -.554E-01 -.158E-01 -.403E+01
   -.474E+02 -.336E+02 -.176E+04   0.495E+02 0.351E+02 0.175E+04   -.215E+01 -.154E+01 0.426E+01   -.681E-02 0.238E-01 0.141E+01
   0.471E-01 -.314E-01 0.191E+04   -.459E-01 -.102E-01 -.190E+04   -.277E-02 0.221E-02 -.359E+01   0.455E-02 0.350E-01 -.351E+01
   0.329E+00 -.456E-01 -.468E+03   -.394E+00 -.186E-01 0.468E+03   -.105E-01 -.933E-02 0.126E+00   0.651E-01 0.713E-01 -.120E+00
   0.489E+00 -.493E+00 0.730E+03   -.531E+00 0.531E+00 -.726E+03   -.314E-02 0.113E-02 -.358E+00   0.395E-01 -.335E-01 -.404E+01
   0.565E+02 -.820E+02 -.168E+04   -.580E+02 0.838E+02 0.168E+04   0.138E+01 -.197E+01 0.227E+01   0.998E-01 0.118E+00 0.152E+01
   -.188E-01 -.141E-01 0.191E+04   0.611E-03 -.119E-03 -.190E+04   0.192E-02 0.971E-03 -.351E+01   0.146E-01 0.140E-01 -.357E+01
   -.209E-01 -.239E-01 -.500E+03   -.775E-02 0.676E-02 0.499E+03   -.518E-03 0.180E-02 0.469E+00   0.297E-01 0.145E-01 0.131E+00
   -.238E+00 -.224E+00 0.726E+03   0.299E+00 0.271E+00 -.721E+03   -.375E-01 -.246E-01 -.530E+00   -.126E-01 -.154E-01 -.396E+01
   -.473E+02 -.340E+02 -.176E+04   0.493E+02 0.355E+02 0.175E+04   -.215E+01 -.152E+01 0.425E+01   0.103E+00 0.533E-01 0.137E+01
   -.210E-01 0.220E-01 0.191E+04   0.219E-01 -.126E-01 -.190E+04   -.334E-02 -.313E-02 -.352E+01   0.605E-03 -.373E-02 -.351E+01
   -.133E+00 0.287E+00 -.500E+03   0.159E+00 -.280E+00 0.500E+03   -.486E-02 0.250E-02 0.486E+00   -.247E-01 -.794E-02 -.101E-01
   0.175E+00 0.216E+00 0.725E+03   -.243E+00 -.254E+00 -.721E+03   0.330E-01 0.223E-01 -.527E+00   0.235E-01 0.617E-02 -.401E+01
   0.479E+02 0.340E+02 -.176E+04   -.499E+02 -.355E+02 0.175E+04   0.213E+01 0.153E+01 0.424E+01   -.972E-01 -.633E-01 0.137E+01
   0.641E-02 0.682E-02 0.191E+04   -.276E-01 -.276E-01 -.190E+04   0.334E-02 0.713E-02 -.353E+01   0.189E-01 0.161E-01 -.353E+01
   0.857E-01 0.339E+00 -.466E+03   -.152E+00 -.384E+00 0.465E+03   -.940E-02 -.773E-02 0.126E+01   0.692E-01 0.397E-01 -.162E+00
   -.126E+00 0.526E+00 0.730E+03   0.156E+00 -.582E+00 -.726E+03   0.358E-02 -.185E-02 -.359E+00   -.289E-01 0.548E-01 -.405E+01
   -.580E+02 0.815E+02 -.168E+04   0.592E+02 -.835E+02 0.168E+04   -.139E+01 0.196E+01 0.224E+01   0.139E+00 0.435E-01 0.151E+01
   0.524E-02 0.339E-02 0.191E+04   -.200E-01 -.826E-03 -.190E+04   0.148E-02 -.286E-02 -.352E+01   0.116E-01 0.336E-03 -.358E+01
   0.172E+00 0.769E-01 -.499E+03   -.210E+00 -.956E-01 0.499E+03   -.713E-02 -.328E-02 0.489E+00   0.346E-01 0.196E-01 0.103E+00
   0.212E+00 0.194E+00 0.726E+03   -.300E+00 -.267E+00 -.721E+03   0.395E-01 0.255E-01 -.531E+00   0.371E-01 0.408E-01 -.396E+01
   0.473E+02 0.339E+02 -.176E+04   -.494E+02 -.355E+02 0.175E+04   0.216E+01 0.153E+01 0.425E+01   -.494E-02 0.146E-01 0.140E+01
   0.102E-01 -.139E-01 0.191E+04   0.251E-01 0.103E-01 -.190E+04   -.291E-02 0.273E-02 -.354E+01   -.313E-01 -.232E-02 -.353E+01
   0.100E+00 0.299E+00 -.465E+03   -.292E-01 -.280E+00 0.464E+03   0.186E-02 0.188E-02 0.129E+01   -.778E-01 -.284E-01 -.125E+00
   -.497E+00 0.485E+00 0.730E+03   0.529E+00 -.529E+00 -.726E+03   0.519E-02 -.254E-02 -.358E+00   -.320E-01 0.394E-01 -.404E+01
   -.565E+02 0.819E+02 -.168E+04   0.579E+02 -.838E+02 0.168E+04   -.138E+01 0.198E+01 0.226E+01   -.908E-01 -.870E-01 0.153E+01
   -.282E-01 0.241E-01 0.191E+04   -.806E-02 -.262E-01 -.190E+04   0.776E-02 -.138E-02 -.358E+01   0.301E-01 0.429E-02 -.350E+01
   -.173E+00 0.575E-01 -.468E+03   0.144E+00 -.120E+00 0.468E+03   -.126E-03 0.421E-02 0.123E+00   0.344E-01 0.606E-01 -.102E+00
   0.437E+00 -.390E+00 0.730E+03   -.463E+00 0.429E+00 -.726E+03   -.192E-02 0.317E-02 -.358E+00   0.231E-01 -.375E-01 -.405E+01
   0.575E+02 -.813E+02 -.168E+04   -.589E+02 0.831E+02 0.168E+04   0.139E+01 -.197E+01 0.225E+01   0.528E-01 0.138E+00 0.151E+01
   -.829E-02 -.135E-01 0.191E+04   -.465E-03 -.262E-03 -.190E+04   0.249E-03 0.185E-02 -.353E+01   0.670E-02 0.112E-01 -.359E+01
   -.304E-01 0.114E-01 -.499E+03   0.179E-01 -.216E-01 0.499E+03   0.123E-02 -.320E-03 0.484E+00   0.110E-01 0.109E-01 0.120E+00
   -.226E+00 -.190E+00 0.726E+03   0.275E+00 0.252E+00 -.721E+03   -.311E-01 -.225E-01 -.528E+00   -.514E-02 -.289E-01 -.396E+01
   -.481E+02 -.336E+02 -.176E+04   0.501E+02 0.351E+02 0.175E+04   -.215E+01 -.151E+01 0.423E+01   0.124E+00 0.538E-01 0.138E+01
   0.301E-01 -.900E-02 0.191E+04   0.788E-02 0.255E-01 -.190E+04   -.739E-02 -.579E-03 -.358E+01   -.326E-01 -.169E-01 -.349E+01
   0.195E+00 -.157E-01 -.468E+03   -.161E+00 0.979E-01 0.468E+03   -.155E-02 -.360E-02 0.123E+00   -.371E-01 -.810E-01 -.627E-01
   0.331E+00 -.660E+00 0.730E+03   -.357E+00 0.704E+00 -.726E+03   0.240E-02 0.613E-02 -.362E+00   0.196E-01 -.412E-01 -.403E+01
   0.580E+02 -.805E+02 -.168E+04   -.593E+02 0.825E+02 0.168E+04   0.141E+01 -.196E+01 0.226E+01   -.115E+00 -.644E-01 0.152E+01
   0.662E-02 0.184E-01 0.191E+04   0.717E-03 -.475E-03 -.190E+04   -.212E-03 -.103E-02 -.353E+01   -.462E-02 -.169E-01 -.350E+01
   0.829E-02 0.179E-01 -.500E+03   -.361E-02 0.551E-02 0.500E+03   -.354E-02 -.172E-02 0.488E+00   -.494E-03 -.218E-01 -.131E-01
   -.299E+00 -.179E+00 0.725E+03   0.389E+00 0.230E+00 -.721E+03   -.378E-01 -.273E-01 -.532E+00   -.373E-01 -.162E-01 -.400E+01
   -.486E+02 -.343E+02 -.176E+04   0.507E+02 0.357E+02 0.175E+04   -.214E+01 -.150E+01 0.422E+01   -.517E-02 0.222E-01 0.140E+01
   0.361E-01 -.344E+00 -.169E+04   0.665E-01 0.424E+00 0.171E+04   -.120E-01 -.369E-01 -.230E+02   -.886E-01 -.457E-01 0.104E+01
   -.640E+00 -.770E+00 -.169E+04   0.616E+00 0.817E+00 0.171E+04   -.619E-01 -.541E-01 -.230E+02   0.855E-01 0.147E-01 0.107E+01
   0.693E+00 0.755E+00 -.169E+04   -.685E+00 -.784E+00 0.171E+04   0.664E-01 0.527E-01 -.230E+02   -.736E-01 -.316E-01 0.102E+01
   -.282E+00 0.165E+00 -.169E+04   0.232E+00 -.218E+00 0.171E+04   -.180E-01 0.116E-01 -.231E+02   0.659E-01 0.451E-01 0.107E+01
   0.584E-01 0.597E-01 0.189E+03   -.422E-12 0.535E-12 0.364E-11   -.585E-01 -.561E-01 -.945E+02   0.838E-02 -.128E-01 -.937E+02

 POSITION                                       TOTAL-FORCE (eV/Angst)
      1.40594      1.52230      2.00000         0.000890     -0.003784      0.349963
      1.40398      1.52099      6.03172         0.010038      0.001977     -0.035440
      2.23340      0.35210      4.02685        -0.012762     -0.010957     -0.233058
      2.27528      0.38078      8.02442         0.025815      0.014054     -0.033584
      3.88832      1.52230      2.00000        -0.000137     -0.001772      0.293561
      3.88736      1.52117      5.98657         0.007949      0.011984     -0.029624
      4.71578      0.35210      4.02685         0.005145     -0.004582     -0.363047
      4.77920      0.26400      7.95756        -0.002616      0.001798      0.039069
      6.37069      1.52230      2.00000         0.002383      0.001086      0.341160
      6.36970      1.52319      6.03378         0.003835     -0.000648     -0.038452
      7.19815      0.35210      4.02685        -0.015578     -0.007698     -0.222707
      7.24040      0.38385      8.02645         0.021526      0.018657     -0.041977
      8.85307      1.52230      2.00000        -0.001125      0.002579      0.288932
      8.85131      1.52148      5.98541         0.004921      0.007637     -0.018476
      9.68053      0.35210      4.02685         0.003210     -0.007863     -0.363949
      9.74366      0.26147      7.95505        -0.006144     -0.006396      0.052307
      2.23340      3.86271      2.00000        -0.002112      0.003949      0.367317
      2.23216      3.86178      5.99285         0.010151      0.002460     -0.026425
      3.06086      2.69251      4.02685        -0.005049      0.003513     -0.363220
      2.99680      2.77948      7.95478         0.003310      0.010392      0.046181
      4.71578      3.86271      2.00000         0.001390     -0.001132      0.346187
      4.71559      3.86268      6.03319         0.000368      0.000419     -0.039400
      5.54324      2.69251      4.02685         0.010632      0.008468     -0.225647
      5.49992      2.66451      8.02623        -0.023448     -0.023562     -0.043544
      7.19815      3.86271      2.00000         0.002783     -0.004216      0.369019
      7.19911      3.86365      5.99277        -0.010195     -0.002129     -0.023144
      8.02561      2.69251      4.02685        -0.005627      0.005998     -0.367472
      7.96121      2.78367      7.95544        -0.000355     -0.004827      0.050184
      9.68053      3.86271      2.00000        -0.001739      0.000881      0.352140
      9.68036      3.86272      6.03257         0.000371     -0.000669     -0.042846
     10.50799      2.69251      4.02685         0.010990      0.006427     -0.232271
     10.46432      2.66093      8.02284        -0.027610     -0.011273     -0.031214
      3.06086      6.20311      2.00000        -0.001976      0.002699      0.343229
      3.06153      6.20221      6.03382        -0.003222      0.001331     -0.039131
      3.88832      5.03291      4.02685        -0.011586     -0.008846     -0.224121
      3.93093      5.06065      8.02637         0.023655      0.024318     -0.044286
      5.54324      6.20311      2.00000         0.000972      0.002591      0.298310
      5.54389      6.20421      5.98658        -0.006978     -0.012569     -0.028759
      6.37069      5.03291      4.02685         0.004367     -0.003216     -0.364534
      6.43410      4.94586      7.95482        -0.000550     -0.014851      0.047753
      8.02561      6.20311      2.00000        -0.001723      0.000171      0.344760
      8.02726      6.20440      6.03166        -0.010300     -0.002265     -0.036036
      8.85307      5.03291      4.02685        -0.011083     -0.006224     -0.234045
      8.89604      5.06469      8.02292         0.026547      0.010916     -0.029494
     10.50799      6.20311      2.00000         0.000943     -0.003020      0.287363
     10.50939      6.20394      5.98541        -0.004922     -0.007404     -0.018890
     11.33544      5.03291      4.02685         0.005420     -0.006542     -0.366354
     11.39924      4.94194      7.95541        -0.001615      0.008065      0.047849
      3.88832      8.54352      2.00000         0.001458      0.000996      0.371895
      3.88745      8.54203      5.99387         0.005271      0.002236     -0.031165
      4.71578      7.37332      4.02685        -0.004674      0.004157     -0.364051
      4.65167      7.46131      7.95756         0.001627     -0.000289      0.044871
      6.37069      8.54352      2.00000        -0.001930     -0.000525      0.339270
      6.37050      8.54348      6.03242        -0.000331      0.000427     -0.035073
      7.19815      7.37332      4.02685         0.012793      0.011263     -0.232431
      7.15548      7.34439      8.02430        -0.025433     -0.013694     -0.034297
      8.85307      8.54352      2.00000        -0.002080     -0.000864      0.377903
      8.85363      8.54505      5.99381        -0.005086     -0.002268     -0.032996
      9.68053      7.37332      4.02685        -0.003996      0.008921     -0.362842
      9.61669      7.46416      7.95510         0.008408      0.003910      0.048425
     11.33544      8.54352      2.00000         0.002392      0.000115      0.344461
     11.33525      8.54354      6.03436         0.000520      0.000087     -0.045675
     12.16290      7.37332      4.02685         0.014308      0.007109     -0.223526
     12.11983      7.34183      8.02633        -0.021924     -0.018800     -0.041853
      3.88269      1.51905      8.98443         0.002015     -0.002559     -0.053760
      8.84719      1.51805      8.98091        -0.000807      0.007661     -0.058335
     10.51328      6.20740      8.98085         0.001151     -0.007048     -0.055127
      5.54407      6.20319      8.98453        -0.002842      0.003244     -0.059830
    total drift:                                0.008271     -0.009183      0.502965

  FREE ENERGIE OF THE ION-ELECTRON SYSTEM (eV)
  free  energy   TOTEN  =      -545.06435126 eV

  energy  without entropy=     -545.06435126  energy(sigma->0) =     -545.06435126

 stress matrix after NEB project (eV)
    -27.50566     -2.44910      0.00597
     -2.44910    -25.75735      0.00290
      0.00597      0.00290      8.56367
  FORCES: max atom, RMS     0.059985    0.031947
  FORCE total and by dimension    0.263440    0.059830
  Stress total and by dimension   38.798644   27.505659

 total charge

[...]

 magnetization (x)

# of ion       s       p       d       tot
    1       -0.004  -0.008   2.709   2.696
    2       -0.015  -0.056   2.488   2.417
    3       -0.015  -0.056   2.506   2.436
    4       -0.011  -0.021   2.703   2.671
    5       -0.003  -0.008   2.716   2.704
    6       -0.018  -0.058   2.512   2.435
    7       -0.016  -0.057   2.472   2.399
    8       -0.004  -0.028   2.278   2.247
    9       -0.004  -0.007   2.708   2.696
   10       -0.015  -0.056   2.489   2.418
   11       -0.015  -0.056   2.507   2.436
   12       -0.011  -0.020   2.700   2.669
   13       -0.003  -0.008   2.715   2.703
   14       -0.018  -0.058   2.511   2.434
   15       -0.016  -0.057   2.472   2.399
   16       -0.004  -0.028   2.276   2.244
   17       -0.005  -0.008   2.698   2.685
   18       -0.012  -0.058   2.281   2.212
   19       -0.016  -0.057   2.473   2.400
   20       -0.004  -0.028   2.278   2.246
   21       -0.004  -0.007   2.707   2.696
   22       -0.015  -0.056   2.492   2.421
   23       -0.015  -0.055   2.507   2.436
   24       -0.011  -0.020   2.707   2.676
   25       -0.005  -0.009   2.699   2.686
   26       -0.012  -0.058   2.281   2.212
   27       -0.016  -0.057   2.471   2.398
   28       -0.004  -0.028   2.276   2.244
   29       -0.005  -0.008   2.709   2.696
   30       -0.015  -0.056   2.488   2.417
   31       -0.015  -0.055   2.505   2.434
   32       -0.011  -0.020   2.707   2.675
   33       -0.004  -0.008   2.708   2.697
   34       -0.015  -0.056   2.489   2.418
   35       -0.015  -0.055   2.507   2.436
   36       -0.011  -0.020   2.705   2.674
   37       -0.003  -0.008   2.715   2.703
   38       -0.018  -0.058   2.511   2.435
   39       -0.016  -0.057   2.473   2.399
   40       -0.004  -0.028   2.276   2.244
   41       -0.004  -0.007   2.708   2.696
   42       -0.015  -0.056   2.488   2.417
   43       -0.015  -0.055   2.506   2.435
   44       -0.011  -0.021   2.707   2.675
   45       -0.003  -0.008   2.716   2.705
   46       -0.018  -0.058   2.511   2.435
   47       -0.016  -0.057   2.472   2.399
   48       -0.004  -0.028   2.278   2.246
   49       -0.005  -0.008   2.699   2.685
   50       -0.012  -0.057   2.280   2.210
   51       -0.016  -0.057   2.471   2.398
   52       -0.004  -0.028   2.277   2.245
   53       -0.004  -0.007   2.708   2.696
   54       -0.015  -0.056   2.488   2.417
   55       -0.015  -0.056   2.505   2.435
   56       -0.011  -0.021   2.706   2.674
   57       -0.005  -0.009   2.699   2.686
   58       -0.012  -0.057   2.280   2.211
   59       -0.016  -0.057   2.473   2.400
   60       -0.004  -0.028   2.279   2.247
   61       -0.004  -0.007   2.708   2.696
   62       -0.015  -0.056   2.490   2.419
   63       -0.015  -0.056   2.508   2.437
   64       -0.011  -0.020   2.700   2.669
   65        0.004   0.033   0.000   0.037
   66        0.004   0.033   0.000   0.037
   67        0.004   0.032   0.000   0.037
   68        0.004   0.033   0.000   0.037
tot         -0.660  -2.197 162.082 159.225

 BZINTS: Fermi energy: -0.626285;536.000000 electrons
         Band energy:***********;  BLOECHL correction: -0.029179