 vasp.5.4.4.18Apr17-6-g9f103f2a35 (build Dec 15 2018 21:27:54) gamma-only

 executed on             LinuxIFC date 2022.03.06  04:56:07

 INCAR:
 POTCAR:    PAW_PBE Fe 06Sep2000
 POTCAR:    PAW_PBE Ni 02Aug2007
 POTCAR:    PAW_PBE O 08Apr2002

 POTCAR:    PAW_PBE Fe 06Sep2000
   VRHFIN =Fe:  d7 s1

   TITEL  = PAW_PBE Fe 06Sep2000
   POMASS =   55.847; ZVAL   =    8.000    mass and valenz
   ENMAX  =  267.882; ENMIN  =  200.911 eV

 POTCAR:    PAW_PBE Ni 02Aug2007
   VRHFIN =Ni:

   TITEL  = PAW_PBE Ni 02Aug2007
   POMASS =   58.690; ZVAL   =   10.000    mass and valenz
   ENMAX  =  269.532; ENMIN  =  202.149 eV

 POTCAR:    PAW_PBE O 08Apr2002
   VRHFIN =O: s2p4

   TITEL  = PAW_PBE O 08Apr2002
   POMASS =   16.000; ZVAL   =    6.000    mass and valenz
   ENMAX  =  400.000; ENMIN  =  300.000 eV

 Optimization of the real space projectors (new method)

 maximal supplied QI-value         = 16.25
 optimisation between [QCUT,QGAM] = [ 11.54, 23.24] = [ 37.28,151.24] Ry
 Optimized for a Real-space Cutoff    1.53 Angstroem

   l    n(q)    QCUT    max X(q) W(low)/X(q) W(high)/X(q)  e(spline)
   2     10    11.539    80.901    0.11E-03    0.14E-03    0.21E-06
   2     10    11.539    75.754    0.11E-03    0.14E-03    0.22E-06
   0     11    11.539    58.752    0.52E-04    0.18E-04    0.33E-06
   0     11    11.539    30.679    0.44E-04    0.16E-04    0.30E-06
   1     10    11.539    17.977    0.53E-04    0.29E-04    0.13E-06
   1     10    11.539    13.559    0.44E-04    0.25E-04    0.11E-06
 Optimization of the real space projectors (new method)

[...]

   l    n(q)    QCUT    max X(q) W(low)/X(q) W(high)/X(q)  e(spline)
   2      9    11.539    60.317    0.19E-03    0.47E-04    0.16E-06
   2      9    11.539    55.921    0.19E-03    0.48E-04    0.16E-06
   0     10    11.539    51.690    0.80E-04    0.50E-04    0.24E-06
   0     10    11.539    30.015    0.73E-04    0.45E-04    0.22E-06
   1     10    11.539    18.849    0.87E-04    0.16E-03    0.71E-07
   1     10    11.539    14.624    0.73E-04    0.13E-03    0.64E-07
 Optimization of the real space projectors (new method)

 maximal supplied QI-value         = 24.76
 optimisation between [QCUT,QGAM] = [ 11.64, 23.27] = [ 37.91,151.63] Ry
 Optimized for a Real-space Cutoff    1.14 Angstroem

   l    n(q)    QCUT    max X(q) W(low)/X(q) W(high)/X(q)  e(spline)
   0      8    11.635    20.381    0.10E-03    0.33E-03    0.24E-06
   0      8    11.635    15.268    0.11E-03    0.35E-03    0.26E-06
   1      7    11.635     5.964    0.24E-03    0.31E-03    0.30E-06
   1      7    11.635     5.382    0.22E-03    0.25E-03    0.26E-06
  PAW_PBE Fe 06Sep2000                  :
  PAW_PBE Ni 02Aug2007                  :
  PAW_PBE O 08Apr2002                   :

 POSCAR: POSCAR
  positions in direct lattice
  velocities in cartesian coordinates
 exchange correlation table for  LEXCH =        8
   RHO(1)=    0.500       N(1)  =     2000
   RHO(2)=  100.500       N(2)  =     4000

 VTST: version 3.2, (02/03/18)

 CHAIN: initializing optimizer

 OPT: Using VASP Dynamics algorithm
 CHAIN: Read ICHAIN            0

 POSCAR: POSCAR
  positions in direct lattice
  velocities in cartesian coordinates

 ion  position               nearest neighbor table
   1  0.002  0.999  0.097-   9 2.45  29 2.50  49 2.51  64 2.51  44 2.53   7 2.53  51 2.54  38 2.55
                             5 2.60
   2  0.003  0.002  0.381-  11 2.43  48 2.45   8 2.49  30 2.50  52 2.51  57 2.51   6 2.51  50 2.55
                            39 2.56
   3  0.499  0.996  0.096-   5 2.47  62 2.50  34 2.52  31 2.52  49 2.53  45 2.55  55 2.55  12 2.56
                            53 2.58
   4  0.495  0.987  0.379-  63 2.40  15 2.43  32 2.45  35 2.46  13 2.47  50 2.52   6 2.55  56 2.58
                            54 2.61
   5  0.743  0.996  0.094-   3 2.47  34 2.47  62 2.52  38 2.53  55 2.54  64 2.58  14 2.58  51 2.59
                             1 2.60
   6  0.752  0.996  0.382-  68 1.79  39 2.44  47 2.49  56 2.49  57 2.50   2 2.51  35 2.53  15 2.54
                             4 2.55  52 2.59
   7  0.249  0.253  0.097-  22 2.43   9 2.44  51 2.49  18 2.52  20 2.53   1 2.53  53 2.54  10 2.55
                            49 2.58
   8  0.250  0.249  0.382-  66 1.77  11 2.44  19 2.46  52 2.46   2 2.49  59 2.50  26 2.52  21 2.52
                            54 2.54  50 2.57
   9  0.089  0.161  0.191-  10 2.41   7 2.44   1 2.45  44 2.47  59 2.52  51 2.52  57 2.53  11 2.53
                            64 2.54  22 2.55  58 2.62  14 2.68
  10  0.330  0.166  0.195-  26 2.41   9 2.41  11 2.45  13 2.47  22 2.48  45 2.48  44 2.49   7 2.55
                            12 2.57  49 2.58  53 2.59  25 2.59
  11  0.170  0.083  0.290-   2 2.43   8 2.44  10 2.45  26 2.50  44 2.52  59 2.52  13 2.52  46 2.52
                             9 2.53  48 2.54  50 2.56  57 2.57
  12  0.583  0.166  0.194-  15 2.43  13 2.44  14 2.45  27 2.50  62 2.52  45 2.54  55 2.55   3 2.56
                            10 2.57  53 2.58  25 2.58  28 2.60
  13  0.421  0.088  0.288-  12 2.44  26 2.45  15 2.46  10 2.47   4 2.47  45 2.50  11 2.52  54 2.56
                            46 2.56  28 2.56  63 2.58  50 2.59
  14  0.827  0.167  0.193-  60 2.45  12 2.45  15 2.47  57 2.48  62 2.51  55 2.51  27 2.53  58 2.56
                            51 2.56   5 2.58  64 2.59   9 2.68
  15  0.663  0.085  0.288-   4 2.43  12 2.43  13 2.46  14 2.47  60 2.51  62 2.51   6 2.54  56 2.55
                            63 2.55  47 2.56  57 2.56  28 2.56
  16  0.003  0.511  0.095-  31 2.44  29 2.45  23 2.48  33 2.51  58 2.57  18 2.58  27 2.59  55 2.60
                            51 2.63
  17  0.002  0.503  0.376-  43 2.37  37 2.40  60 2.43  32 2.51  19 2.55  30 2.55  24 2.56  52 2.57
                            56 2.62
  18  0.256  0.506  0.097-  36 2.40  31 2.45  34 2.47  22 2.47  20 2.48   7 2.52  58 2.53  51 2.58
                            16 2.58
  19  0.247  0.491  0.384-  67 1.84  52 2.42   8 2.46  59 2.51  21 2.52  17 2.55  37 2.55  61 2.56
                            35 2.58  32 2.60
  20  0.500  0.503  0.098-  22 2.41  40 2.43  34 2.48  18 2.48  38 2.50  25 2.53   7 2.53  53 2.54
                            23 2.58
  21  0.500  0.498  0.377-  42 2.37  26 2.43  61 2.43  35 2.51  19 2.52   8 2.52  39 2.55  24 2.56
                            54 2.56
  22  0.339  0.416  0.189-  20 2.41   7 2.43  40 2.46  18 2.47  25 2.48  10 2.48  61 2.51  36 2.53
                            26 2.53  59 2.54   9 2.55  58 2.60
  23  0.757  0.508  0.096-  29 2.40  41 2.46  16 2.48  27 2.48  38 2.48  25 2.56  55 2.57  20 2.58
                            53 2.60
  24  0.749  0.496  0.396-  69 1.78  65 1.85  54 2.54  21 2.56  17 2.56  28 2.58  56 2.59  39 2.61
                            30 2.63  43 2.70  42 2.73
  25  0.586  0.422  0.194-  40 2.45  26 2.45  41 2.46  27 2.46  42 2.46  22 2.48  20 2.53  28 2.54
                            23 2.56  53 2.58  12 2.58  10 2.59
  26  0.419  0.329  0.287-  10 2.41  21 2.43  25 2.45  13 2.45  11 2.50  28 2.50   8 2.52  22 2.53
                            42 2.54  59 2.55  61 2.57  54 2.61
  27  0.827  0.417  0.192-  41 2.45  25 2.46  23 2.48  12 2.50  55 2.51  60 2.52  28 2.52  14 2.53
                            43 2.55  58 2.59  16 2.59  33 2.60
  28  0.673  0.343  0.292-  43 2.46  42 2.49  60 2.50  26 2.50  27 2.52  25 2.54  15 2.56  13 2.56
                            54 2.57  24 2.58  56 2.58  12 2.60
  29  0.992  0.747  0.096-  23 2.40  16 2.45  38 2.48  41 2.50   1 2.50  33 2.54  44 2.56  49 2.57
                            31 2.63
  30  0.007  0.757  0.388-  65 1.86  50 2.45  46 2.46  32 2.50   2 2.50  17 2.55  43 2.58  39 2.61
                            48 2.61  24 2.63
  31  0.251  0.746  0.097-  16 2.44  36 2.44  18 2.45  33 2.49  34 2.52   3 2.52  45 2.55  49 2.56
                            29 2.63
  32  0.251  0.749  0.388-  67 1.86   4 2.45  46 2.49  50 2.50  30 2.50  17 2.51  35 2.55  19 2.60
                            63 2.60  37 2.63
  33  0.086  0.671  0.192-  45 2.48  44 2.48  31 2.49  16 2.51  37 2.52  36 2.52  41 2.52  29 2.54
                            43 2.54  58 2.55  46 2.59  27 2.60
  34  0.502  0.749  0.098-  18 2.47   5 2.47  40 2.48  36 2.48  20 2.48  62 2.49  38 2.49  31 2.52
                             3 2.52
  35  0.501  0.746  0.384-  67 1.88  39 2.46   4 2.46  47 2.49  21 2.51   6 2.53  61 2.54  32 2.55
                            63 2.56  19 2.58
  36  0.330  0.661  0.190-  18 2.40  31 2.44  34 2.48  37 2.49  58 2.49  61 2.50  63 2.52  33 2.52
                            22 2.53  40 2.53  62 2.56  45 2.62
  37  0.169  0.580  0.286-  17 2.40  58 2.46  61 2.49  36 2.49  63 2.50  59 2.51  33 2.52  19 2.55
                            60 2.56  46 2.57  43 2.59  32 2.63
  38  0.748  0.749  0.094-  29 2.48  23 2.48  34 2.49  20 2.50   5 2.53  40 2.54  64 2.55   1 2.55
                            41 2.58
  39  0.747  0.752  0.386-  65 1.85   6 2.44  35 2.46  42 2.53  48 2.54  47 2.54  21 2.55   2 2.56
                            24 2.61  30 2.61
  40  0.580  0.661  0.192-  20 2.43  25 2.45  22 2.46  61 2.47  34 2.48  42 2.51  47 2.52  36 2.53
                            38 2.54  41 2.54  62 2.56  64 2.57
  41  0.832  0.662  0.193-  27 2.45  25 2.46  23 2.46  43 2.47  29 2.50  42 2.51  33 2.52  48 2.54
                            40 2.54  64 2.54  44 2.57  38 2.58
  42  0.665  0.584  0.289-  21 2.37  25 2.46  28 2.49  40 2.51  41 2.51  47 2.51  61 2.51  43 2.52
                            39 2.53  48 2.53  26 2.54  24 2.73
  43  0.916  0.587  0.289-  17 2.37  28 2.46  41 2.47  42 2.52  46 2.53  48 2.54  33 2.54  27 2.55
                            60 2.58  30 2.58  37 2.59  24 2.70
  44  0.086  0.916  0.194-  45 2.43   9 2.47  33 2.48  10 2.49  48 2.51  11 2.52   1 2.53  49 2.53
                            64 2.54  29 2.56  41 2.57  46 2.58
  45  0.327  0.919  0.193-  44 2.43  33 2.48  10 2.48  49 2.49  13 2.50  63 2.52  12 2.54  31 2.55
                             3 2.55  46 2.55  62 2.59  36 2.62
  46  0.169  0.834  0.294-  50 2.46  30 2.46  32 2.49  63 2.50  11 2.52  43 2.53  45 2.55  13 2.56
                            37 2.57  44 2.58  33 2.59  48 2.60
  47  0.661  0.831  0.287-  62 2.47   6 2.49  35 2.49  63 2.49  61 2.51  42 2.51  64 2.52  40 2.52
                            48 2.53  39 2.54  15 2.56  57 2.56
  48  0.914  0.837  0.288-   2 2.45  64 2.46  57 2.49  44 2.51  47 2.53  42 2.53  39 2.54  43 2.54
                            41 2.54  11 2.54  46 2.60  30 2.61
  49  0.249  0.998  0.096-  45 2.49   1 2.51  44 2.53   3 2.53  53 2.55  31 2.56  29 2.57  10 2.58
                             7 2.58
  50  0.252  0.997  0.388-  66 1.87  30 2.45  46 2.46  54 2.50  32 2.50   4 2.52   2 2.55  11 2.56
                             8 2.57  13 2.59
  51  0.001  0.250  0.097-   7 2.49  58 2.51   9 2.52   1 2.54  55 2.55  14 2.56  18 2.58   5 2.59
                            16 2.63
  52  0.008  0.252  0.381-  68 1.87  19 2.42  59 2.46   8 2.46   2 2.51  57 2.51  60 2.51  56 2.55
                            17 2.57   6 2.59
  53  0.499  0.252  0.095-  55 2.53   7 2.54  20 2.54  49 2.55   3 2.58  25 2.58  12 2.58  10 2.59
                            23 2.60
[...]
      6.29432      5.13755      6.14865         0.180243      0.176419      0.163239
     -3.76296      8.02446      4.11956         0.020382     -0.121698     -0.180557
     -1.33707      8.05044      4.10308        -0.048107     -0.218112     -0.277181
     -2.50342      7.30259      6.24706        -0.341685      0.072621     -0.897746
      2.48639      7.27573      6.10844         0.500334     -0.020244     -0.035941
      5.01256      7.32595      6.13154         0.608830     -0.320705      0.525075
     -2.52690      8.74056      2.03303        -0.162187     -0.045549      0.512617
     -2.48609      8.72661      8.24838        -0.068392     -0.494199     -0.260645
     -1.24953      2.18697      2.05404         0.002603      0.029767      0.255569
     -1.19765      2.21008      8.10258         0.317806      0.128656      0.253456
      3.77687      2.20348      2.02824         0.033838     -0.031978      0.514226
      3.79747      2.14247      8.27956        -0.181322      0.100324     -0.457843
      6.31052      2.19548      2.03586         0.036708      0.043318      0.456088
      6.36852      2.10902      8.26635        -0.029821      0.134098     -0.387743
      8.83655      0.72690      6.07612        -0.078905     -0.387658     -0.174161
     -1.27338      3.65234      4.08853        -0.030506      0.048641     -0.300190
      0.02299      2.89897      6.08348         0.102091      0.023643     -0.233854
      7.56663      2.89167      6.09447        -0.254364      0.300802     -0.078190
      1.26000      5.08884      6.08095         0.106327     -0.005697      0.163925
      1.25660      8.01495      4.09194        -0.130950      0.060444     -0.265014
     -0.00659      7.26235      6.08721        -0.207014      0.140457      0.131926
      3.80919      8.00883      4.09175        -0.040765     -0.019128     -0.457221
      5.03723      5.93594      9.35817        -0.058901      0.262000     -0.423530
      2.33788      1.46674      9.34289        -0.138286      0.121198      0.053413
      0.04665      5.73724      9.32067         0.063290      0.034042     -0.635147
      7.78821      1.30843      9.29578         0.023903     -0.249332     -0.427509
      5.10306      2.87201      9.40682         0.039387      0.574202      0.112657
    total drift:                               -0.006952      0.006826     -0.004258

  FREE ENERGIE OF THE ION-ELECTRON SYSTEM (eV)
  free  energy   TOTEN  =      -497.17140817 eV

  energy  without entropy=     -493.87008092  energy(sigma->0) =     -495.52074454

 d Force = 0.2956979E-02[-0.338E-02, 0.929E-02]  d Energy = 0.3030720E-02-0.737E-04
 d Force =-0.5866719E+02[-0.587E+02,-0.587E+02]  d Ewald  =-0.5866846E+02 0.127E-02

 stress matrix after NEB project (eV)
   -124.66955      1.09633      0.22687
      1.09633   -125.70231      2.56963
      0.22687      2.56963    -73.05940
  FORCES: max atom, RMS     0.586473    0.070603
  FORCE total and by dimension    0.586473    0.574202
  Stress total and by dimension  191.564493  125.702310
 Finite differences progress:
  Degree of freedom:   3/  3
  Displacement:        2/  2
  Total:               6/  6

 SECOND DERIVATIVES (NOT SYMMETRIZED)
              69X         69Y         69Z
 69X    -7.966718    0.475529    0.009878
 69Y     0.364847  -10.733058    2.953391
 69Z     0.113921    2.928200  -14.081531

 Eigenvectors and eigenvalues of the dynamical matrix

   1 f  =   15.532565 THz    97.593983 2PiTHz  518.110575 cm-1    64.237547 meV
             X         Y         Z           dx          dy          dz
     -5.032083  8.749923  2.059207            0           0           0
      0.023009  0.017188  8.104899            0           0           0
      0.005743  8.726069  2.044661            0           0           0
      0.021722  8.639559  8.053144            0           0           0
      2.476647  8.725920  2.008210            0           0           0
      2.568068  8.725085  8.125821            0           0           0
      1.238907  2.217482  2.058803            0           0           0
      1.265236  2.178627  8.125591            0           0           0
      0.080741  1.414191  4.053211            0           0           0
      2.493295  1.454508  4.148294            0           0           0
      1.298127  0.730969  6.166345            0           0           0
      5.061665  1.449298  4.134981            0           0           0
      3.816131  0.768989  6.119246            0           0           0
      7.515570  1.458116  4.110014            0           0           0
      6.275089  0.741086  6.121168            0           0           0
     -2.550623  4.473994  2.009954            0           0           0
     -2.521176  4.406169  7.998024            0           0           0
      0.030138  4.429053  2.070202            0           0           0
      0.019541  4.295859  8.172647            0           0           0
      2.508468  4.405164  2.074349            0           0           0
      2.535213  4.358316  8.019846            0           0           0
      1.321393  3.641455  4.027713            0           0           0
      5.083819  4.448896  2.048149            0           0           0
      5.062547  4.343109  8.418523            0           0           0
      3.793772  3.697998  4.130706            0           0           0
      2.572724  2.882966  6.093125            0           0           0
      6.252931  3.649555  4.083048            0           0           0
      5.071308  3.000668  6.217052            0           0           0
      6.251940  6.541671  2.035474            0           0           0
     -3.751541  6.628858  8.257081            0           0           0
     -1.231329  6.529507  2.063609            0           0           0
     -1.249292  6.557959  8.261847            0           0           0
     -2.521724  5.874752  4.087450            0           0           0
      1.284263  6.559439  2.074094            0           0           0
      1.294831  6.534900  8.166360            0           0           0
     -0.006259  5.791447  4.044577            0           0           0
     -1.225621  5.080532  6.091163            0           0           0
      3.776284  6.555708  2.000001            0           0           0
      3.750573  6.589391  8.204442            0           0           0
      2.523868  5.788006  4.073096            0           0           0
      5.067337  5.797043  4.105165            0           0           0
      3.771038  5.117606  6.144470            0           0           0
      6.294318  5.137551  6.148647            0           0           0
     -3.762957  8.024455  4.119563            0           0           0
     -1.337071  8.050437  4.103081            0           0           0
     -2.503418  7.302590  6.247064            0           0           0
      2.486385  7.275728  6.108442            0           0           0
      5.012558  7.325946  6.131537            0           0           0
     -2.526901  8.740562  2.033028            0           0           0
     -2.486086  8.726615  8.248378            0           0           0
     -1.249535  2.186973  2.054039            0           0           0
     -1.197650  2.210078  8.102577            0           0           0
      3.776871  2.203480  2.028243            0           0           0
      3.797469  2.142474  8.279564            0           0           0
      6.310522  2.195476  2.035857            0           0           0
      6.368522  2.109018  8.266353            0           0           0
      8.836550  0.726896  6.076124            0           0           0
     -1.273378  3.652340  4.088535            0           0           0
      0.022991  2.898966  6.083477            0           0           0
      7.566626  2.891669  6.094469            0           0           0
      1.260004  5.088841  6.080947            0           0           0
      1.256598  8.014945  4.091938            0           0           0
     -0.006588  7.262350  6.087211            0           0           0
      3.809188  8.008833  4.091746            0           0           0
      5.037226  5.935937  9.358169            0           0           0
      2.337882  1.466738  9.342891            0           0           0
      0.046649  5.737240  9.320674            0           0           0
      7.788210  1.308429  9.295784            0           0           0
      5.103061  2.872014  9.421818     0.020199   -0.503531    0.863741

[...]

   3 f  =   10.938383 THz    68.727889 2PiTHz  364.865179 cm-1    45.237533 meV
             X         Y         Z           dx          dy          dz
     -5.032083  8.749923  2.059207            0           0           0
      0.023009  0.017188  8.104899            0           0           0
      0.005743  8.726069  2.044661            0           0           0
      0.021722  8.639559  8.053144            0           0           0
      2.476647  8.725920  2.008210            0           0           0
      2.568068  8.725085  8.125821            0           0           0
      1.238907  2.217482  2.058803            0           0           0
      1.265236  2.178627  8.125591            0           0           0
      0.080741  1.414191  4.053211            0           0           0
      2.493295  1.454508  4.148294            0           0           0
      1.298127  0.730969  6.166345            0           0           0
      5.061665  1.449298  4.134981            0           0           0
      3.816131  0.768989  6.119246            0           0           0
      7.515570  1.458116  4.110014            0           0           0
      6.275089  0.741086  6.121168            0           0           0
     -2.550623  4.473994  2.009954            0           0           0
     -2.521176  4.406169  7.998024            0           0           0
      0.030138  4.429053  2.070202            0           0           0
      0.019541  4.295859  8.172647            0           0           0
      2.508468  4.405164  2.074349            0           0           0
      2.535213  4.358316  8.019846            0           0           0
      1.321393  3.641455  4.027713            0           0           0
      5.083819  4.448896  2.048149            0           0           0
      5.062547  4.343109  8.418523            0           0           0
      3.793772  3.697998  4.130706            0           0           0
      2.572724  2.882966  6.093125            0           0           0
      6.252931  3.649555  4.083048            0           0           0
      5.071308  3.000668  6.217052            0           0           0
      6.251940  6.541671  2.035474            0           0           0
     -3.751541  6.628858  8.257081            0           0           0
     -1.231329  6.529507  2.063609            0           0           0
     -1.249292  6.557959  8.261847            0           0           0
     -2.521724  5.874752  4.087450            0           0           0
      1.284263  6.559439  2.074094            0           0           0
      1.294831  6.534900  8.166360            0           0           0
     -0.006259  5.791447  4.044577            0           0           0
     -1.225621  5.080532  6.091163            0           0           0
      3.776284  6.555708  2.000001            0           0           0
      3.750573  6.589391  8.204442            0           0           0
      2.523868  5.788006  4.073096            0           0           0
      5.067337  5.797043  4.105165            0           0           0
      3.771038  5.117606  6.144470            0           0           0
      6.294318  5.137551  6.148647            0           0           0
     -3.762957  8.024455  4.119563            0           0           0
     -1.337071  8.050437  4.103081            0           0           0
     -2.503418  7.302590  6.247064            0           0           0
      2.486385  7.275728  6.108442            0           0           0
      5.012558  7.325946  6.131537            0           0           0
     -2.526901  8.740562  2.033028            0           0           0
     -2.486086  8.726615  8.248378            0           0           0
     -1.249535  2.186973  2.054039            0           0           0
     -1.197650  2.210078  8.102577            0           0           0
      3.776871  2.203480  2.028243            0           0           0
      3.797469  2.142474  8.279564            0           0           0
      6.310522  2.195476  2.035857            0           0           0
      6.368522  2.109018  8.266353            0           0           0
      8.836550  0.726896  6.076124            0           0           0
     -1.273378  3.652340  4.088535            0           0           0
      0.022991  2.898966  6.083477            0           0           0
      7.566626  2.891669  6.094469            0           0           0
      1.260004  5.088841  6.080947            0           0           0
      1.256598  8.014945  4.091938            0           0           0
     -0.006588  7.262350  6.087211            0           0           0
      3.809188  8.008833  4.091746            0           0           0
      5.037226  5.935937  9.358169            0           0           0
      2.337882  1.466738  9.342891            0           0           0
      0.046649  5.737240  9.320674            0           0           0
      7.788210  1.308429  9.295784            0           0           0
      5.103061  2.872014  9.421818     0.949093    0.281282    0.141783

 Finite differences POTIM=  1.500000000000000E-002

 total charge

# of ion       s       p       d       tot
    1        0.467   0.360   6.254   7.080
    2        0.454   0.362   6.307   7.124
    3        0.458   0.349   6.248   7.056
    4        0.468   0.368   6.304   7.140
    5        0.452   0.348   6.241   7.041
    6        0.492   0.547   6.298   7.338
    7        0.469   0.367   6.264   7.100
    8        0.503   0.556   6.315   7.374
    9        0.475   0.496   6.262   7.232
   10        0.491   0.518   6.278   7.288
   11        0.485   0.517   6.274   7.276
   12        0.475   0.496   6.258   7.229
   13        0.484   0.512   6.271   7.266
   14        0.461   0.468   6.262   7.191
   15        0.480   0.507   6.266   7.253
   16        0.461   0.353   6.250   7.064
   17        0.472   0.366   6.296   7.134
   18        0.481   0.393   6.263   7.137
   19        0.467   0.500   6.292   7.259
   20        0.487   0.396   6.266   7.149
   21        0.474   0.382   6.302   7.158
   22        0.488   0.530   6.275   7.293
   23        0.477   0.382   6.260   7.118
   24        0.469   0.587   6.326   7.382
   25        0.487   0.527   6.269   7.284
   26        0.487   0.527   6.276   7.289
   27        0.474   0.501   6.255   7.230
   28        0.464   0.486   6.263   7.214
   29        0.480   0.386   6.258   7.124
   30        0.464   0.494   6.272   7.230
   31        0.481   0.386   6.259   7.126
   32        0.462   0.490   6.278   7.230
   33        0.480   0.509   6.251   7.240
   34        0.489   0.408   6.261   7.158
   35        0.464   0.499   6.284   7.246
   36        0.483   0.515   6.275   7.273
   37        0.470   0.493   6.261   7.224
   38        0.471   0.380   6.248   7.099
   39        0.475   0.507   6.286   7.268
   40        0.485   0.521   6.273   7.279
   41        0.487   0.518   6.271   7.277
   42        0.490   0.523   6.270   7.283
   43        0.476   0.504   6.255   7.235
   44        0.481   0.515   6.259   7.255
   45        0.473   0.503   6.255   7.231
   46        0.475   0.495   6.262   7.233
   47        0.477   0.495   6.274   7.245
   48        0.473   0.504   6.249   7.226
   49        0.504   0.365   8.297   9.167
   50        0.509   0.518   8.309   9.336
   51        0.499   0.353   8.300   9.151
   52        0.502   0.511   8.320   9.333
   53        0.489   0.340   8.302   9.131
   54        0.464   0.557   8.326   9.346
   55        0.501   0.355   8.300   9.156
   56        0.462   0.550   8.326   9.337
   57        0.507   0.505   8.301   9.313
   58        0.501   0.492   8.294   9.287
   59        0.507   0.500   8.321   9.328
   60        0.507   0.497   8.313   9.317
   61        0.520   0.530   8.296   9.346
   62        0.512   0.518   8.288   9.318
   63        0.515   0.522   8.299   9.335
   64        0.505   0.500   8.292   9.296
   65        1.584   3.357   0.000   4.941
   66        1.586   3.336   0.000   4.922
   67        1.583   3.351   0.000   4.933
   68        1.586   3.329   0.000   4.915
   69        1.587   3.338   0.000   4.925
tot         38.765  46.670 433.879 519.313