 vasp.5.4.4.18Apr17-6-g9f103f2a35 (build Dec 15 2018 21:27:54) gamma-only

 executed on             LinuxIFC date 2022.03.01  23:48:53

 INCAR:
 POTCAR:    PAW_PBE Ni 02Aug2007
 POTCAR:    PAW_PBE Fe 06Sep2000
 POTCAR:    PAW_PBE O 08Apr2002
 POTCAR:    PAW_PBE H 15Jun2001

 POTCAR:    PAW_PBE Ni 02Aug2007
   VRHFIN =Ni:

   TITEL  = PAW_PBE Ni 02Aug2007
   POMASS =   58.690; ZVAL   =   10.000    mass and valenz
   ENMAX  =  269.532; ENMIN  =  202.149 eV

 POTCAR:    PAW_PBE Fe 06Sep2000
   VRHFIN =Fe:  d7 s1

   TITEL  = PAW_PBE Fe 06Sep2000
   POMASS =   55.847; ZVAL   =    8.000    mass and valenz
   ENMAX  =  267.882; ENMIN  =  200.911 eV

 POTCAR:    PAW_PBE O 08Apr2002
   VRHFIN =O: s2p4

   TITEL  = PAW_PBE O 08Apr2002
   POMASS =   16.000; ZVAL   =    6.000    mass and valenz
   ENMAX  =  400.000; ENMIN  =  300.000 eV

 POTCAR:    PAW_PBE H 15Jun2001
   VRHFIN =H: ultrasoft test

   TITEL  = PAW_PBE H 15Jun2001
   POMASS =    1.000; ZVAL   =    1.000    mass and valenz
   ENMAX  =  250.000; ENMIN  =  200.000 eV

 Optimization of the real space projectors (new method)

 maximal supplied QI-value         = 16.25
 optimisation between [QCUT,QGAM] = [ 11.54, 23.24] = [ 37.28,151.24] Ry
 Optimized for a Real-space Cutoff    1.45 Angstroem

   l    n(q)    QCUT    max X(q) W(low)/X(q) W(high)/X(q)  e(spline)
   2      9    11.539    60.317    0.19E-03    0.47E-04    0.16E-06
   2      9    11.539    55.921    0.19E-03    0.48E-04    0.16E-06
   0     10    11.539    51.690    0.80E-04    0.50E-04    0.24E-06
   0     10    11.539    30.015    0.73E-04    0.45E-04    0.22E-06
   1     10    11.539    18.849    0.87E-04    0.16E-03    0.71E-07
   1     10    11.539    14.624    0.73E-04    0.13E-03    0.64E-07
 Optimization of the real space projectors (new method)

[...]

   l    n(q)    QCUT    max X(q) W(low)/X(q) W(high)/X(q)  e(spline)
   0      8    11.635    20.381    0.10E-03    0.33E-03    0.24E-06
   0      8    11.635    15.268    0.11E-03    0.35E-03    0.26E-06
   1      7    11.635     5.964    0.24E-03    0.31E-03    0.30E-06
   1      7    11.635     5.382    0.22E-03    0.25E-03    0.26E-06
 Optimization of the real space projectors (new method)

 maximal supplied QI-value         = 34.20
 optimisation between [QCUT,QGAM] = [ 11.63, 23.26] = [ 37.87,151.49] Ry
 Optimized for a Real-space Cutoff    1.21 Angstroem

   l    n(q)    QCUT    max X(q) W(low)/X(q) W(high)/X(q)  e(spline)
   0      8    11.629    19.460    0.17E-03    0.34E-03    0.21E-06
   0      8    11.629    12.209    0.16E-03    0.33E-03    0.21E-06
   1      8    11.629     4.655    0.18E-03    0.16E-03    0.26E-06
  PAW_PBE Ni 02Aug2007                  :
  PAW_PBE Fe 06Sep2000                  :
  PAW_PBE O 08Apr2002                   :
  PAW_PBE H 15Jun2001                   :

 POSCAR: POSCAR
  positions in direct lattice
  velocities in cartesian coordinates
 exchange correlation table for  LEXCH =        8
   RHO(1)=    0.500       N(1)  =     2000
   RHO(2)=  100.500       N(2)  =     4000

 VTST: version 3.2, (02/03/18)

 CHAIN: initializing optimizer

 OPT: Using VASP Dynamics algorithm
 CHAIN: Read ICHAIN            0

 POSCAR: POSCAR
  positions in direct lattice
  velocities in cartesian coordinates

 ion  position               nearest neighbor table
   1  0.999  0.001  0.191-  35 2.44  59 2.48  23 2.50  32 2.50   5 2.52  40 2.52  37 2.52   2 2.53
                             4 2.53  21 2.54  34 2.54  62 2.59
   2  0.248  0.999  0.192-  59 2.45  50 2.47  36 2.48   6 2.49  37 2.50   3 2.51  28 2.52  60 2.52
                             5 2.52  21 2.53   1 2.53   8 2.56
   3  0.499  0.002  0.192-  39 2.46  36 2.49  30 2.50  60 2.50  34 2.51   2 2.51   8 2.52  11 2.52
                             7 2.53  50 2.54  51 2.54  61 2.57
   4  0.998  0.251  0.192-  35 2.46  42 2.49  19 2.50  43 2.50  34 2.50  13 2.50   7 2.53   1 2.53
                            40 2.53  10 2.54   5 2.55  46 2.55
   5  0.249  0.249  0.191-  36 2.48  45 2.48  35 2.49  37 2.50  46 2.50   6 2.51   1 2.52  42 2.52
                             2 2.52  16 2.54   4 2.55  44 2.55
   6  0.332  0.165  0.287-  17 2.46  38 2.47   9 2.47  36 2.47   2 2.49   5 2.51  59 2.52  45 2.53
                            60 2.54  15 2.55  39 2.56  35 2.56
   7  0.749  0.253  0.193-  39 2.42  18 2.46  14 2.49  48 2.49  13 2.51  34 2.51  10 2.52   4 2.53
                             3 2.53  11 2.54  36 2.55  19 2.55
   8  0.418  0.084  0.094-  37 2.49  36 2.51  16 2.51   3 2.52  11 2.52  30 2.53  28 2.53  48 2.56
                             2 2.56
   9  0.416  0.086  0.382-  68 1.84  38 2.43   6 2.47  17 2.48  60 2.50  49 2.53  12 2.53  29 2.53
                            39 2.54  31 2.55
  10  0.831  0.166  0.290-  41 2.44  12 2.46  39 2.48  20 2.49  34 2.49  35 2.51  43 2.51   7 2.52
                            62 2.53  18 2.53   4 2.54  61 2.55
  11  0.668  0.085  0.096-  34 2.51  40 2.51  48 2.51   8 2.52   3 2.52  19 2.53  30 2.54  63 2.54
                             7 2.54
  12  0.667  0.087  0.384-  68 1.85  10 2.46  20 2.48  41 2.49  39 2.51  49 2.52   9 2.53  61 2.54
                            64 2.56  31 2.57
  13  0.999  0.499  0.193-  43 2.44  22 2.47  18 2.49  53 2.50   4 2.50  42 2.51   7 2.51  19 2.52
                            50 2.52  21 2.53  14 2.53  26 2.55
  14  0.748  0.499  0.192-  15 2.47  44 2.48  18 2.49   7 2.49  48 2.49  56 2.49  57 2.52  26 2.52
                            21 2.52  23 2.53  13 2.53  36 2.57
  15  0.584  0.419  0.286-  49 2.44  56 2.46  14 2.47  44 2.47  45 2.49  17 2.50  18 2.50  36 2.52
                             6 2.55  55 2.56  39 2.56  58 2.63
  16  0.420  0.333  0.094-  36 2.51   8 2.51  37 2.52  57 2.52  44 2.52  46 2.53  24 2.54  48 2.54
                             5 2.54
  17  0.414  0.330  0.381-  66 1.85  38 2.44   6 2.46   9 2.48  45 2.50  15 2.50  49 2.51  47 2.54
                            25 2.55  58 2.58
  18  0.830  0.416  0.287-  49 2.42   7 2.46  56 2.48  43 2.48  14 2.49  13 2.49  39 2.49  15 2.50
                            10 2.53  20 2.53  27 2.54  22 2.54
  19  0.919  0.335  0.096-  48 2.49   4 2.50  40 2.51  53 2.51  13 2.52  11 2.53  26 2.54  46 2.54
                             7 2.55
  20  0.914  0.332  0.385-  67 1.86  41 2.47  12 2.48  10 2.49  43 2.51  49 2.52  18 2.53  47 2.54
                            27 2.59  54 2.60
  21  0.998  0.749  0.193-  59 2.45  50 2.48  23 2.48  22 2.49  32 2.50  56 2.51  26 2.52  14 2.52
                             2 2.53  13 2.53   1 2.54  28 2.55
  22  0.083  0.666  0.287-  29 2.43  50 2.44  13 2.47  43 2.47  21 2.49  54 2.52  60 2.52  18 2.54
                            59 2.54  56 2.54  27 2.56  52 2.65
  23  0.753  0.752  0.192-  62 2.47  21 2.48  63 2.49   1 2.50  32 2.51  56 2.51  57 2.52  55 2.53
                            14 2.53  44 2.54  51 2.57  34 2.58
  24  0.417  0.584  0.096-  46 2.49  44 2.50  51 2.51  57 2.52  30 2.52  63 2.53  16 2.54  42 2.56
                            53 2.57
  25  0.412  0.581  0.383-  66 1.89  52 2.42  54 2.48  47 2.51  55 2.52  45 2.52  31 2.53  17 2.55
                            58 2.56  64 2.56
  26  0.916  0.585  0.095-  48 2.48  32 2.48  57 2.50  53 2.51  21 2.52  14 2.52  28 2.53  19 2.54
                            13 2.55
  27  0.910  0.586  0.384-  67 1.89  56 2.45  58 2.45  33 2.48  49 2.50  18 2.54  29 2.56  22 2.56
                            20 2.59  54 2.61
  28  0.167  0.835  0.095-  32 2.48  37 2.49  53 2.50   2 2.52  50 2.53   8 2.53  26 2.53  30 2.54
                            21 2.55
  29  0.165  0.836  0.377-  60 2.41  59 2.43  22 2.43  38 2.47  33 2.50  54 2.52   9 2.53  31 2.54
                            27 2.56
  30  0.417  0.833  0.097-  51 2.49   3 2.50  53 2.52  24 2.52   8 2.53  11 2.54  28 2.54  63 2.54
                            50 2.55
  31  0.413  0.832  0.385-  68 1.86  54 2.45  52 2.48  60 2.50  25 2.53  61 2.53  29 2.54  64 2.54
                             9 2.55  12 2.57
  32  0.920  0.833  0.095-  28 2.48  26 2.48   1 2.50  21 2.50  23 2.51  57 2.53  37 2.54  63 2.54
                            40 2.57
  33  0.916  0.834  0.381-  65 1.95  27 2.48  56 2.48  62 2.49  59 2.50  29 2.50  58 2.51  64 2.53
                            41 2.57  38 2.58
  34  0.749  0.005  0.193-  62 2.47  10 2.49  61 2.50   4 2.50  11 2.51   7 2.51   3 2.51  63 2.54
                             1 2.54  51 2.55  40 2.57  23 2.58
  35  0.077  0.161  0.284-   1 2.44   4 2.46  47 2.47   5 2.49  59 2.49  10 2.51  41 2.54  62 2.56
                             6 2.56  43 2.60  45 2.60  38 2.61
  36  0.493  0.245  0.192-   6 2.47   5 2.48   2 2.48   3 2.49  39 2.50  16 2.51   8 2.51  44 2.52
                            15 2.52   7 2.55  14 2.57  48 2.57
  37  0.171  0.083  0.095-  28 2.49   8 2.49   2 2.50   5 2.50  16 2.52   1 2.52  32 2.54  46 2.57
                            40 2.58
  38  0.175  0.086  0.384-  65 1.85   9 2.43  17 2.44   6 2.47  29 2.47  47 2.55  59 2.58  33 2.58
                            35 2.61  41 2.65
  39  0.586  0.167  0.286-   7 2.42   3 2.46  49 2.48  10 2.48  18 2.49  36 2.50  12 2.51   9 2.54
                            60 2.55   6 2.56  15 2.56  61 2.58
  40  0.917  0.086  0.094-  19 2.51  11 2.51   1 2.52  63 2.53   4 2.53  46 2.55  34 2.57  32 2.57
                            37 2.58
  41  0.914  0.088  0.383-  65 1.85  10 2.44  20 2.47  12 2.49  47 2.50  35 2.54  64 2.54  62 2.56
                            33 2.57  38 2.65
  42  0.246  0.497  0.194-  45 2.45  43 2.48   4 2.49  13 2.51  46 2.51   5 2.52  53 2.54  52 2.54
                            51 2.55  24 2.56  44 2.58  50 2.59
  43  0.077  0.418  0.287-  47 2.43  13 2.44  22 2.47  42 2.48  18 2.48   4 2.50  10 2.51  20 2.51
                            54 2.56  35 2.60  45 2.63  52 2.66
  44  0.503  0.500  0.191-  15 2.47  14 2.48  45 2.48  57 2.49  24 2.50  36 2.52  16 2.52  23 2.54
                             5 2.55  51 2.55  55 2.55  42 2.58
  45  0.336  0.417  0.285-  42 2.45  47 2.45  44 2.48   5 2.48  15 2.49  17 2.50  25 2.52   6 2.53
                            52 2.53  55 2.54  35 2.60  43 2.63
  46  0.171  0.337  0.096-  24 2.49   5 2.50  42 2.51  16 2.53  19 2.54   4 2.55  53 2.55  40 2.55
                            37 2.57
  47  0.164  0.331  0.377-  43 2.43  45 2.45  35 2.47  41 2.50  25 2.51  17 2.54  20 2.54  38 2.55
                            54 2.59
  48  0.673  0.336  0.096-  26 2.48  19 2.49  14 2.49   7 2.49  11 2.51  57 2.53  16 2.54   8 2.56
                            36 2.57
  49  0.666  0.336  0.379-  18 2.42  15 2.44  39 2.48  27 2.50  17 2.51  12 2.52  20 2.52   9 2.53
                            58 2.54
  50  0.245  0.753  0.193-  22 2.44  60 2.45   2 2.47  21 2.48  53 2.51  13 2.52  28 2.53   3 2.54
                            30 2.55  51 2.57  52 2.58  42 2.59
  51  0.498  0.750  0.193-  52 2.43  61 2.48  55 2.48  30 2.49  24 2.51  63 2.52   3 2.54  44 2.55
                            34 2.55  42 2.55  23 2.57  50 2.57
  52  0.348  0.673  0.289-  55 2.39  61 2.39  25 2.42  51 2.43  31 2.48  60 2.51  45 2.53  42 2.54
                            54 2.57  50 2.58  22 2.65  43 2.66
[...]
      1.24700      6.55932      4.09363         0.193701      0.041440      0.291072
      0.11814      5.88363      6.13593        -0.895173     -0.279716     -0.491587
     -1.29718      5.12819      2.06865         0.530049     -0.239965      0.917797
     -1.25892      5.16190      8.17715        -0.295669     -1.095340     -0.703009
      2.50444      5.87926      6.11757         0.175234     -0.073593     -0.167340
      5.03092      5.78441      6.12496        -0.304788      1.040466      0.070694
      3.79261      5.11061      2.02334        -0.230164     -0.229501      1.021531
      3.77533      5.13403      8.26361        -0.402049     -0.525449     -0.950870
     -3.80351      8.01499      6.05238        -0.213873      0.202491      0.311722
     -1.24473      7.99611      6.11745         0.283361     -0.073660     -0.834882
      1.29420      7.96190      6.13264         0.117462     -0.157471     -0.485181
      3.68429      7.96243      6.11035         0.089692      0.407039      0.234813
      2.54183      7.29082      2.05307         0.183217      0.250237      0.926150
      2.51401      7.28760      8.29261         0.538445      0.046619     -0.875680
      0.00575      0.10821      9.26312         0.152822      0.182615     -0.546661
      2.50772      4.30274      9.29118         0.517962      0.283873     -0.517682
     -2.52029      4.40910      9.26961         0.429004      0.493854     -0.549346
      5.01623      0.03721      9.27025         0.035359      0.091968     -0.114151
      2.70284      7.25391     10.07862        -0.499893     -0.174906     -0.547982
      3.43806      7.75866     10.46382         0.322821      0.199623      0.047581
    total drift:                                0.003292      0.000393     -0.011180

  FREE ENERGIE OF THE ION-ELECTRON SYSTEM (eV)
  free  energy   TOTEN  =      -459.24460473 eV

  energy  without entropy=     -456.27403796  energy(sigma->0) =     -457.75932134

 d Force = 0.2962855E-02[-0.143E-02, 0.735E-02]  d Energy = 0.2931021E-02 0.318E-04
 d Force =-0.1027172E+02[-0.103E+02,-0.103E+02]  d Ewald  =-0.1027231E+02 0.596E-03

 stress matrix after NEB project (eV)
   -110.97455      0.17047      1.97623
      0.17047   -110.48786      0.00096
      1.97623      0.00096    -51.74088
  FORCES: max atom, RMS     0.762082    0.101917
  FORCE total and by dimension    0.852699    0.547982
  Stress total and by dimension  164.948190  110.974550
 Finite differences progress:
  Degree of freedom:   6/  6
  Displacement:        2/  2
  Total:              12/ 12

 SECOND DERIVATIVES (NOT SYMMETRIZED)
              69X         69Y         69Z         70X         70Y         70Z
 69X   -27.700295  -18.753762  -15.177135   26.012211   18.021285   13.696145
 69Y   -18.786532  -13.355128   -9.605026   17.962464   12.212041    9.335707
 69Z   -15.190194   -9.642352  -24.655758   14.108311    9.649180    8.363961
 70X    25.954931   17.954253   14.053919  -26.134440  -17.848559  -14.431527
 70Y    18.054916   12.222116    9.683079  -17.859287  -12.449078   -9.728658
 70Z    13.688618    9.325674    8.347303  -14.421952   -9.727708   -9.756167

 Eigenvectors and eigenvalues of the dynamical matrix

   1 f  =  109.956744 THz   690.878601 2PiTHz 3667.762086 cm-1   454.744705 meV
             X         Y         Z           dx          dy          dz
     10.087402  0.005616  4.049338            0           0           0
     -2.533390  8.735124  4.081899            0           0           0
      5.030576  0.016856  4.076606            0           0           0
      8.815571  2.192677  4.079497            0           0           0
      1.260357  2.176827  4.063429            0           0           0
      2.523341  1.439958  6.105426            0           0           0
      6.287892  2.211107  4.105703            0           0           0
      3.801807  0.734234  2.000365            0           0           0
      3.772956  0.749084  8.122247            0           0           0
      7.556923  1.454700  6.153138            0           0           0
      6.318840  0.741083  2.033840            0           0           0
      6.299532  0.758854  8.152916            0           0           0
      7.570506  4.365760  4.102834            0           0           0
      5.038171  4.362287  4.081707            0           0           0
      3.779274  3.662382  6.086381            0           0           0
      2.554616  2.916038  2.000833            0           0           0
      2.520136  2.883729  8.101141            0           0           0
      6.282162  3.640712  6.108995            0           0           0
      7.585848  2.930427  2.033712            0           0           0
      7.552361  2.903890  8.172572            0           0           0
      6.294246  6.551326  4.092632            0           0           0
     -2.526262  5.823414  6.098798            0           0           0
      3.813887  6.575459  4.072844            0           0           0
      1.268710  5.104157  2.045338            0           0           0
      1.223475  5.082481  8.138818            0           0           0
      6.294498  5.113735  2.028229            0           0           0
      6.228137  5.124988  8.163621            0           0           0
     -2.531390  7.303045  2.009908            0           0           0
     -2.559413  7.315468  8.016405            0           0           0
      0.004636  7.289749  2.057219            0           0           0
     -0.027813  7.278640  8.183492            0           0           0
      5.085834  7.283180  2.027570            0           0           0
      5.039559  7.296815  8.089136            0           0           0
      7.544053  0.039694  4.104385            0           0           0
     -0.038793  1.405871  6.045485            0           0           0
      3.741862  2.146894  4.073886            0           0           0
      1.310005  0.729449  2.026741            0           0           0
      1.339168  0.750242  8.161055            0           0           0
      5.080075  1.457789  6.068388            0           0           0
      8.827908  0.750635  2.000004            0           0           0
      8.786723  0.766800  8.149535            0           0           0
     -0.024064  4.344636  4.116840            0           0           0
     -1.335555  3.653724  6.105714            0           0           0
      2.557020  4.370247  4.058689            0           0           0
      1.290258  3.645009  6.065722            0           0           0
      0.022150  2.949898  2.029844            0           0           0
     -0.014960  2.899536  8.006385            0           0           0
      5.097187  2.938868  2.040429            0           0           0
      5.032800  2.936535  8.052799            0           0           0
     -1.327635  6.583961  4.111250            0           0           0
      1.246999  6.559320  4.093631            0           0           0
      0.118137  5.883630  6.135926            0           0           0
     -1.297178  5.128186  2.068654            0           0           0
     -1.258917  5.161904  8.177148            0           0           0
      2.504444  5.879263  6.117574            0           0           0
      5.030923  5.784411  6.124957            0           0           0
      3.792606  5.110613  2.023341            0           0           0
      3.775331  5.134029  8.263607            0           0           0
     -3.803515  8.014987  6.052376            0           0           0
     -1.244726  7.996114  6.117451            0           0           0
      1.294195  7.961905  6.132642            0           0           0
      3.684285  7.962430  6.110354            0           0           0
      2.541829  7.290825  2.053075            0           0           0
      2.514011  7.287596  8.292614            0           0           0
      0.005747  0.108213  9.263122            0           0           0
      2.507715  4.302735  9.291176            0           0           0
     -2.520294  4.409103  9.269609            0           0           0
      5.016229  0.037209  9.270253            0           0           0
      2.702842  7.253913 10.078618     0.180152    0.123470    0.101364
      3.438060  7.758661 10.478819    -0.724466   -0.496643   -0.412942

[...]

   6 f  =    1.751217 THz    11.003219 2PiTHz   58.414300 cm-1     7.242453 meV
             X         Y         Z           dx          dy          dz
     10.087402  0.005616  4.049338            0           0           0
     -2.533390  8.735124  4.081899            0           0           0
      5.030576  0.016856  4.076606            0           0           0
      8.815571  2.192677  4.079497            0           0           0
      1.260357  2.176827  4.063429            0           0           0
      2.523341  1.439958  6.105426            0           0           0
      6.287892  2.211107  4.105703            0           0           0
      3.801807  0.734234  2.000365            0           0           0
      3.772956  0.749084  8.122247            0           0           0
      7.556923  1.454700  6.153138            0           0           0
      6.318840  0.741083  2.033840            0           0           0
      6.299532  0.758854  8.152916            0           0           0
      7.570506  4.365760  4.102834            0           0           0
      5.038171  4.362287  4.081707            0           0           0
      3.779274  3.662382  6.086381            0           0           0
      2.554616  2.916038  2.000833            0           0           0
      2.520136  2.883729  8.101141            0           0           0
      6.282162  3.640712  6.108995            0           0           0
      7.585848  2.930427  2.033712            0           0           0
      7.552361  2.903890  8.172572            0           0           0
      6.294246  6.551326  4.092632            0           0           0
     -2.526262  5.823414  6.098798            0           0           0
      3.813887  6.575459  4.072844            0           0           0
      1.268710  5.104157  2.045338            0           0           0
      1.223475  5.082481  8.138818            0           0           0
      6.294498  5.113735  2.028229            0           0           0
      6.228137  5.124988  8.163621            0           0           0
     -2.531390  7.303045  2.009908            0           0           0
     -2.559413  7.315468  8.016405            0           0           0
      0.004636  7.289749  2.057219            0           0           0
     -0.027813  7.278640  8.183492            0           0           0
      5.085834  7.283180  2.027570            0           0           0
      5.039559  7.296815  8.089136            0           0           0
      7.544053  0.039694  4.104385            0           0           0
     -0.038793  1.405871  6.045485            0           0           0
      3.741862  2.146894  4.073886            0           0           0
      1.310005  0.729449  2.026741            0           0           0
      1.339168  0.750242  8.161055            0           0           0
      5.080075  1.457789  6.068388            0           0           0
      8.827908  0.750635  2.000004            0           0           0
      8.786723  0.766800  8.149535            0           0           0
     -0.024064  4.344636  4.116840            0           0           0
     -1.335555  3.653724  6.105714            0           0           0
      2.557020  4.370247  4.058689            0           0           0
      1.290258  3.645009  6.065722            0           0           0
      0.022150  2.949898  2.029844            0           0           0
     -0.014960  2.899536  8.006385            0           0           0
      5.097187  2.938868  2.040429            0           0           0
      5.032800  2.936535  8.052799            0           0           0
     -1.327635  6.583961  4.111250            0           0           0
      1.246999  6.559320  4.093631            0           0           0
      0.118137  5.883630  6.135926            0           0           0
     -1.297178  5.128186  2.068654            0           0           0
     -1.258917  5.161904  8.177148            0           0           0
      2.504444  5.879263  6.117574            0           0           0
      5.030923  5.784411  6.124957            0           0           0
      3.792606  5.110613  2.023341            0           0           0
      3.775331  5.134029  8.263607            0           0           0
     -3.803515  8.014987  6.052376            0           0           0
     -1.244726  7.996114  6.117451            0           0           0
      1.294195  7.961905  6.132642            0           0           0
      3.684285  7.962430  6.110354            0           0           0
      2.541829  7.290825  2.053075            0           0           0
      2.514011  7.287596  8.292614            0           0           0
      0.005747  0.108213  9.263122            0           0           0
      2.507715  4.302735  9.291176            0           0           0
     -2.520294  4.409103  9.269609            0           0           0
      5.016229  0.037209  9.270253            0           0           0
      2.702842  7.253913 10.078618     0.563291   -0.774693   -0.036092
      3.438060  7.758661 10.478819    -0.168440    0.228483    0.025968

 Finite differences POTIM=  1.500000000000000E-002

 total charge

# of ion       s       p       d       tot
    1        0.499   0.498   8.302   9.299
    2        0.503   0.504   8.306   9.314
    3        0.502   0.495   8.309   9.307
    4        0.501   0.501   8.305   9.306
    5        0.506   0.509   8.293   9.309
    6        0.513   0.511   8.311   9.335
    7        0.497   0.494   8.310   9.302
    8        0.488   0.354   8.310   9.152
    9        0.509   0.518   8.317   9.344
   10        0.520   0.522   8.307   9.349
   11        0.496   0.360   8.309   9.166
   12        0.501   0.505   8.313   9.320
   13        0.496   0.493   8.318   9.307
   14        0.500   0.500   8.310   9.309
   15        0.514   0.511   8.306   9.332
   16        0.501   0.372   8.295   9.168
   17        0.504   0.515   8.322   9.340
   18        0.511   0.499   8.328   9.339
   19        0.496   0.368   8.303   9.167
   20        0.494   0.492   8.317   9.303
   21        0.491   0.483   8.324   9.298
   22        0.510   0.498   8.312   9.321
   23        0.503   0.509   8.294   9.306
   24        0.505   0.378   8.294   9.177
   25        0.497   0.497   8.311   9.306
   26        0.495   0.361   8.317   9.173
   27        0.489   0.481   8.316   9.285
   28        0.495   0.357   8.313   9.165
   29        0.501   0.374   8.363   9.239
   30        0.491   0.359   8.306   9.155
   31        0.498   0.499   8.309   9.306
   32        0.495   0.366   8.310   9.171
   33        0.486   0.475   8.312   9.272
   34        0.456   0.486   6.247   7.188
   35        0.465   0.484   6.255   7.203
   36        0.454   0.477   6.253   7.185
   37        0.449   0.345   6.245   7.038
   38        0.457   0.479   6.293   7.229
   39        0.467   0.481   6.272   7.220
   40        0.448   0.341   6.232   7.021
   41        0.457   0.484   6.290   7.231
   42        0.467   0.493   6.249   7.210
   43        0.466   0.481   6.266   7.212
   44        0.461   0.486   6.256   7.202
   45        0.472   0.486   6.274   7.233
   46        0.450   0.347   6.243   7.040
   47        0.461   0.357   6.298   7.115
   48        0.447   0.344   6.249   7.040
   49        0.443   0.350   6.305   7.098
   50        0.458   0.486   6.248   7.192
   51        0.468   0.493   6.261   7.222
   52        0.492   0.521   6.281   7.294
   53        0.453   0.347   6.246   7.046
   54        0.455   0.477   6.275   7.207
   55        0.489   0.519   6.280   7.288
   56        0.467   0.484   6.267   7.217
   57        0.454   0.353   6.247   7.054
   58        0.447   0.475   6.277   7.199
   59        0.465   0.483   6.268   7.216
   60        0.467   0.483   6.279   7.229
   61        0.491   0.515   6.292   7.298
   62        0.482   0.504   6.267   7.252
   63        0.454   0.349   6.245   7.048
   64        0.469   0.505   6.273   7.246
   65        1.582   3.340   0.000   4.922
   66        1.584   3.330   0.000   4.915
   67        1.583   3.333   0.000   4.915
   68        1.584   3.330   0.000   4.914
   69        1.572   3.473   0.000   5.046
   70        0.616   0.124   0.000   0.740
tot         39.358  46.005 468.505 553.868