 vasp.5.4.4.18Apr17-6-g9f103f2a35 (build Dec 15 2018 21:27:11) complex

 executed on             LinuxIFC date 2022.03.11  23:57:42

 INCAR:
 POTCAR:    PAW_PBE Ni 02Aug2007
 POTCAR:    PAW_PBE Fe 06Sep2000
 POTCAR:    PAW_PBE O 08Apr2002

 POTCAR:    PAW_PBE Ni 02Aug2007
   VRHFIN =Ni:

   TITEL  = PAW_PBE Ni 02Aug2007
   POMASS =   58.690; ZVAL   =   10.000    mass and valenz
   ENMAX  =  269.532; ENMIN  =  202.149 eV

 POTCAR:    PAW_PBE Fe 06Sep2000
   VRHFIN =Fe:  d7 s1

   TITEL  = PAW_PBE Fe 06Sep2000
   POMASS =   55.847; ZVAL   =    8.000    mass and valenz
   ENMAX  =  267.882; ENMIN  =  200.911 eV

 POTCAR:    PAW_PBE O 08Apr2002
   VRHFIN =O: s2p4

   TITEL  = PAW_PBE O 08Apr2002
   POMASS =   16.000; ZVAL   =    6.000    mass and valenz
   ENMAX  =  400.000; ENMIN  =  300.000 eV

 Optimization of the real space projectors (new method)

 maximal supplied QI-value         = 16.25
 optimisation between [QCUT,QGAM] = [ 11.54, 23.24] = [ 37.28,151.24] Ry
 Optimized for a Real-space Cutoff    1.45 Angstroem

   l    n(q)    QCUT    max X(q) W(low)/X(q) W(high)/X(q)  e(spline)
   2      9    11.539    60.317    0.19E-03    0.47E-04    0.16E-06
   2      9    11.539    55.921    0.19E-03    0.48E-04    0.16E-06
   0     10    11.539    51.690    0.80E-04    0.50E-04    0.24E-06
   0     10    11.539    30.015    0.73E-04    0.45E-04    0.22E-06
   1     10    11.539    18.849    0.87E-04    0.16E-03    0.71E-07
   1     10    11.539    14.624    0.73E-04    0.13E-03    0.64E-07
 Optimization of the real space projectors (new method)

[...]

   l    n(q)    QCUT    max X(q) W(low)/X(q) W(high)/X(q)  e(spline)
   2     10    11.539    80.901    0.11E-03    0.14E-03    0.21E-06
   2     10    11.539    75.754    0.11E-03    0.14E-03    0.22E-06
   0     11    11.539    58.752    0.52E-04    0.18E-04    0.33E-06
   0     11    11.539    30.679    0.44E-04    0.16E-04    0.30E-06
   1     10    11.539    17.977    0.53E-04    0.29E-04    0.13E-06
   1     10    11.539    13.559    0.44E-04    0.25E-04    0.11E-06
 Optimization of the real space projectors (new method)

 maximal supplied QI-value         = 24.76
 optimisation between [QCUT,QGAM] = [ 11.64, 23.27] = [ 37.91,151.63] Ry
 Optimized for a Real-space Cutoff    1.14 Angstroem

   l    n(q)    QCUT    max X(q) W(low)/X(q) W(high)/X(q)  e(spline)
   0      8    11.635    20.381    0.10E-03    0.33E-03    0.24E-06
   0      8    11.635    15.268    0.11E-03    0.35E-03    0.26E-06
   1      7    11.635     5.964    0.24E-03    0.31E-03    0.30E-06
   1      7    11.635     5.382    0.22E-03    0.25E-03    0.26E-06
  PAW_PBE Ni 02Aug2007                  :
  PAW_PBE Fe 06Sep2000                  :
  PAW_PBE O 08Apr2002                   :

 POSCAR: POSCAR
  positions in direct lattice
  velocities in cartesian coordinates
 exchange correlation table for  LEXCH =        8
   RHO(1)=    0.500       N(1)  =     2000
   RHO(2)=  100.500       N(2)  =     4000

 VTST: version 3.2, (02/03/18)

 CHAIN: initializing optimizer

 OPT: Using VASP Dynamics algorithm
 CHAIN: Read ICHAIN            0

 POSCAR: POSCAR
  positions in direct lattice
  velocities in cartesian coordinates

 ion  position               nearest neighbor table
   1  0.999  0.001  0.191-  35 2.47  59 2.49  23 2.50  32 2.50   5 2.52  40 2.52  37 2.52   2 2.53
                             4 2.53  21 2.54  62 2.54  34 2.54
   2  0.248  0.999  0.192-  59 2.46  50 2.47   6 2.47  36 2.48  37 2.50  60 2.50   3 2.51  28 2.52
                             5 2.52  21 2.53   1 2.53   8 2.56
   3  0.499  0.002  0.192-  39 2.43  61 2.47  36 2.49  30 2.50  60 2.50  34 2.51   2 2.51   8 2.52
                            11 2.52   7 2.53  50 2.54  51 2.54
   4  0.998  0.251  0.192-  35 2.47  43 2.48  42 2.49  19 2.50  34 2.50  13 2.50   7 2.53   1 2.53
                            40 2.53   5 2.55  46 2.55  10 2.55
   5  0.249  0.249  0.191-  35 2.48  36 2.48  45 2.50   6 2.50  37 2.50  46 2.50   1 2.52  42 2.52
                             2 2.52  16 2.54   4 2.55  44 2.55
   6  0.333  0.165  0.286-  38 2.44   9 2.44  36 2.45   2 2.47  17 2.50   5 2.50  15 2.50  45 2.51
                            35 2.55  60 2.55  59 2.56  39 2.57
   7  0.749  0.253  0.193-  18 2.44  39 2.46  14 2.49  48 2.49  13 2.51  34 2.51   4 2.53   3 2.53
                            11 2.54  36 2.55  19 2.55  10 2.56
   8  0.418  0.084  0.094-  37 2.49  36 2.51  16 2.51   3 2.52  11 2.52  30 2.53  28 2.53  48 2.56
                             2 2.56
   9  0.413  0.087  0.381-  68 1.80  38 2.41   6 2.44  17 2.46  12 2.50  39 2.51  29 2.53  60 2.53
                            49 2.55  31 2.60
  10  0.832  0.164  0.290-  20 2.48  39 2.48  34 2.49  43 2.49  35 2.51  62 2.52  41 2.53  18 2.54
                             4 2.55  61 2.55   7 2.56  12 2.58
  11  0.668  0.085  0.096-  34 2.51  40 2.51  48 2.51   8 2.52   3 2.52  19 2.53  30 2.54  63 2.54
                             7 2.54
  12  0.662  0.091  0.390-  69 1.88  68 1.88  49 2.48  20 2.50   9 2.50  39 2.52  10 2.58  41 2.61
                            64 2.62  31 2.63  61 2.73
  13  0.999  0.499  0.193-  43 2.43  22 2.46  18 2.49  53 2.50   4 2.50  42 2.51   7 2.51  19 2.52
                            50 2.52  21 2.53  14 2.53  26 2.55
  14  0.748  0.499  0.192-  56 2.45  15 2.46  44 2.48   7 2.49  48 2.49  18 2.49  57 2.52  26 2.52
                            21 2.52  23 2.53  13 2.53  36 2.57
  15  0.582  0.412  0.286-  49 2.41  14 2.46  36 2.47  56 2.48  44 2.48  18 2.49  45 2.50   6 2.50
                            17 2.51  55 2.53  39 2.59  58 2.64
  16  0.420  0.333  0.094-  36 2.51   8 2.51  37 2.52  57 2.52  44 2.52  46 2.53  24 2.54  48 2.54
                             5 2.54
  17  0.415  0.332  0.381-  66 1.87  38 2.43  45 2.46   9 2.46   6 2.50  15 2.51  49 2.51  47 2.53
                            25 2.56  58 2.57
  18  0.829  0.413  0.287-  49 2.41   7 2.44  43 2.46  56 2.46  13 2.49  14 2.49  15 2.49  20 2.51
                            22 2.52  10 2.54  39 2.54  27 2.55
  19  0.919  0.335  0.096-  48 2.49   4 2.50  40 2.51  53 2.51  13 2.52  11 2.53  26 2.54  46 2.54
                             7 2.55
  20  0.914  0.334  0.384-  67 1.86  10 2.48  43 2.48  41 2.49  12 2.50  18 2.51  49 2.53  47 2.54
                            27 2.56  54 2.56
  21  0.998  0.749  0.193-  59 2.41  50 2.48  23 2.48  22 2.50  56 2.50  32 2.50  26 2.52  14 2.52
                             2 2.53  13 2.53   1 2.54  28 2.55
  22  0.079  0.662  0.287-  29 2.44  13 2.46  43 2.46  50 2.47  21 2.50  56 2.50  18 2.52  59 2.52
                            60 2.52  54 2.53  27 2.56  52 2.59
  23  0.753  0.752  0.192-  21 2.48  63 2.49  55 2.49   1 2.50  62 2.50  32 2.51  57 2.52  56 2.52
                            14 2.53  44 2.54  51 2.57  34 2.58
  24  0.417  0.584  0.096-  46 2.49  44 2.50  51 2.51  57 2.52  30 2.52  63 2.53  16 2.54  42 2.56
                            53 2.57
  25  0.414  0.585  0.386-  66 1.89  52 2.45  64 2.47  31 2.48  47 2.50  54 2.51  58 2.54  17 2.56
                            45 2.57  55 2.59
  26  0.916  0.585  0.095-  48 2.48  32 2.48  57 2.50  53 2.51  21 2.52  14 2.52  28 2.53  19 2.54
                            13 2.55
  27  0.907  0.583  0.384-  67 1.88  33 2.42  56 2.45  49 2.45  58 2.46  18 2.55  20 2.56  22 2.56
                            29 2.58  54 2.60
  28  0.167  0.835  0.095-  32 2.48  37 2.49  53 2.50   2 2.52  50 2.53   8 2.53  26 2.53  30 2.54
                            21 2.55
  29  0.164  0.836  0.377-  60 2.41  59 2.42  22 2.44  33 2.47  31 2.50  54 2.52  38 2.52   9 2.53
                            27 2.58
  30  0.417  0.833  0.097-  51 2.49   3 2.50  53 2.52  24 2.52   8 2.53  11 2.54  28 2.54  63 2.54
                            50 2.55
  31  0.406  0.827  0.385-  68 1.85  54 2.41  25 2.48  52 2.49  29 2.50  60 2.51  64 2.52  61 2.60
                             9 2.60  12 2.63
  32  0.920  0.833  0.095-  28 2.48  26 2.48   1 2.50  21 2.50  23 2.51  57 2.53  37 2.54  63 2.54
                            40 2.57
  33  0.914  0.826  0.383-  65 1.89  27 2.42  58 2.45  29 2.47  62 2.51  56 2.51  59 2.54  64 2.62
                            41 2.64  38 2.66
  34  0.749  0.005  0.193-  61 2.46  10 2.49   4 2.50  11 2.51   7 2.51   3 2.51  62 2.52  63 2.54
                             1 2.54  51 2.55  40 2.57  23 2.58
  35  0.081  0.164  0.285-   1 2.47   4 2.47   5 2.48  47 2.49  38 2.51  10 2.51  62 2.52  59 2.54
                             6 2.55  45 2.55  43 2.57  41 2.62
  36  0.493  0.245  0.192-   6 2.45  15 2.47   5 2.48   2 2.48   3 2.49  16 2.51   8 2.51  44 2.52
                             7 2.55  39 2.56  14 2.57  48 2.57
  37  0.171  0.083  0.095-  28 2.49   8 2.49   2 2.50   5 2.50  16 2.52   1 2.52  32 2.54  46 2.57
                            40 2.58
  38  0.176  0.091  0.381-  65 1.81   9 2.41  17 2.43   6 2.44  35 2.51  29 2.52  47 2.53  59 2.58
                            41 2.59  33 2.66
  39  0.583  0.156  0.287-   3 2.43  61 2.44   7 2.46  10 2.48   9 2.51  49 2.51  60 2.52  12 2.52
                            18 2.54  36 2.56   6 2.57  15 2.59
  40  0.917  0.086  0.094-  19 2.51  11 2.51   1 2.52  63 2.53   4 2.53  46 2.55  34 2.57  32 2.57
                            37 2.58
  41  0.919  0.089  0.389-  69 1.83  65 1.87  20 2.49  47 2.51  10 2.53  38 2.59  12 2.61  35 2.62
                            64 2.63  62 2.63  33 2.64
  42  0.246  0.497  0.194-  45 2.48  52 2.49  43 2.49   4 2.49  13 2.51  46 2.51   5 2.52  53 2.54
                            51 2.55  24 2.56  44 2.58  50 2.59
  43  0.074  0.415  0.287-  13 2.43  47 2.45  18 2.46  22 2.46  20 2.48   4 2.48  42 2.49  10 2.49
                            52 2.56  35 2.57  54 2.60  45 2.65
  44  0.503  0.500  0.191-  14 2.48  15 2.48  57 2.49  55 2.50  24 2.50  45 2.51  36 2.52  16 2.52
                            23 2.54   5 2.55  51 2.55  42 2.58
  45  0.336  0.415  0.287-  47 2.44  17 2.46  42 2.48  52 2.49   5 2.50  15 2.50  44 2.51   6 2.51
                            55 2.53  35 2.55  25 2.57  43 2.65
  46  0.171  0.337  0.096-  24 2.49   5 2.50  42 2.51  16 2.53  19 2.54   4 2.55  53 2.55  40 2.55
                            37 2.57
  47  0.167  0.337  0.378-  45 2.44  43 2.45  35 2.49  25 2.50  41 2.51  17 2.53  38 2.53  20 2.54
                            54 2.55
  48  0.673  0.336  0.096-  26 2.48  19 2.49  14 2.49   7 2.49  11 2.51  57 2.53  16 2.54   8 2.56
                            36 2.57
  49  0.666  0.338  0.378-  15 2.41  18 2.41  27 2.45  12 2.48  17 2.51  39 2.51  20 2.53  58 2.54
                             9 2.55
  50  0.245  0.753  0.193-  60 2.42  22 2.47   2 2.47  21 2.48  53 2.51  13 2.52  28 2.53   3 2.54
                            30 2.55  51 2.57  52 2.59  42 2.59
  51  0.498  0.750  0.193-  61 2.42  30 2.49  52 2.51  24 2.51  55 2.52  63 2.52   3 2.54  44 2.55
                            34 2.55  42 2.55  23 2.57  50 2.57
  52  0.335  0.660  0.289-  25 2.45  45 2.49  42 2.49  31 2.49  61 2.50  51 2.51  55 2.53  54 2.53
                            60 2.55  43 2.56  50 2.59  22 2.59
  53  0.165  0.586  0.097-  13 2.50  28 2.50  50 2.51  26 2.51  19 2.51  30 2.52  42 2.54  46 2.55
[...]
   0.575E+02 0.813E+02 -.247E+04   -.576E+02 -.836E+02 0.247E+04   0.126E+00 0.235E+01 0.710E+00   -.207E-03 -.379E-03 0.618E-02
   0.236E+01 0.124E+02 -.762E+03   -.231E+01 -.125E+02 0.761E+03   -.400E-01 0.465E-01 0.104E+01   0.293E-02 -.994E-03 0.203E-01
   -.679E+02 0.135E+02 0.285E+04   0.680E+02 -.135E+02 -.285E+04   0.105E-02 0.503E-01 -.965E+00   0.238E-02 0.300E-02 0.646E-02
   -.866E+02 0.917E+02 -.250E+04   0.868E+02 -.934E+02 0.250E+04   -.260E+00 0.177E+01 0.117E+01   0.109E-02 -.203E-02 0.525E-02
   0.216E+01 -.230E+02 0.994E+03   -.216E+01 0.228E+02 -.994E+03   0.586E-01 0.123E+00 -.413E-01   0.135E-02 -.233E-03 0.179E-01
   -.963E+02 -.235E+02 -.745E+03   0.966E+02 0.237E+02 0.745E+03   -.298E+00 -.171E+00 0.539E+00   0.226E-02 -.163E-02 0.189E-01
   0.142E+03 -.160E+02 0.101E+04   -.142E+03 0.158E+02 -.101E+04   0.772E-01 0.108E+00 -.264E+00   0.408E-03 0.157E-02 0.159E-01
   0.118E+02 -.687E+01 0.274E+04   -.117E+02 0.670E+01 -.273E+04   -.326E-01 0.611E-02 -.791E+00   -.319E-02 0.489E-03 0.612E-02
   0.117E+03 -.271E+02 -.246E+04   -.119E+03 0.286E+02 0.246E+04   0.237E+01 -.143E+01 0.127E+01   -.161E-02 0.113E-02 0.660E-02
   0.294E+01 0.270E+02 0.286E+04   -.331E+01 -.271E+02 -.286E+04   0.318E+00 0.140E+00 -.966E+00   0.193E-02 0.353E-03 0.547E-02
   0.113E+03 -.597E+02 -.255E+04   -.115E+03 0.609E+02 0.255E+04   0.193E+01 -.122E+01 0.564E+00   0.202E-02 -.281E-02 0.594E-02
   -.362E+02 0.150E+02 0.284E+04   0.363E+02 -.153E+02 -.284E+04   -.109E+00 0.929E-01 -.138E+01   0.366E-03 -.283E-02 0.553E-02
   0.978E+01 -.769E+01 -.248E+04   -.999E+01 0.732E+01 0.248E+04   0.197E+00 0.379E+00 0.324E+01   0.322E-02 -.549E-03 0.673E-02
   -.561E+02 0.762E+02 0.276E+04   0.559E+02 -.761E+02 -.276E+04   0.192E+00 0.620E-03 -.124E+01   0.130E-03 -.511E-02 0.555E-02
   -.278E+02 0.178E+03 -.243E+04   0.277E+02 -.180E+03 0.243E+04   0.140E+00 0.234E+01 0.599E+00   0.873E-03 0.643E-03 0.631E-02
   0.952E+02 -.486E+02 0.285E+04   -.956E+02 0.486E+02 -.285E+04   0.162E+00 0.463E-01 -.392E+00   -.988E-04 -.654E-03 0.537E-02
   0.579E+02 0.654E+02 -.244E+04   -.576E+02 -.679E+02 0.244E+04   -.227E+00 0.248E+01 0.125E+01   -.138E-02 0.132E-02 0.718E-02
   -.172E+02 0.767E+02 0.806E+03   0.176E+02 -.768E+02 -.806E+03   -.328E+00 0.959E-01 -.111E+00   0.126E-02 0.776E-03 0.157E-01
   0.875E+01 -.142E+02 -.611E+03   -.896E+01 0.141E+02 0.611E+03   0.206E+00 0.101E+00 -.469E+00   -.160E-02 0.216E-02 0.151E-01
   0.831E+01 -.358E+02 0.846E+03   -.815E+01 0.356E+02 -.846E+03   0.279E-01 0.223E+00 -.141E+00   -.902E-03 0.333E-03 0.158E-01
   0.648E+02 -.482E+02 0.228E+04   -.648E+02 0.480E+02 -.228E+04   0.123E+00 -.677E-03 -.227E+01   -.873E-03 0.984E-04 0.503E-02
   -.573E+01 -.721E+02 -.194E+04   0.637E+01 0.727E+02 0.194E+04   -.635E+00 -.659E+00 0.136E+01   -.962E-03 0.131E-02 0.480E-02
   0.134E+02 0.340E+02 -.574E+03   -.126E+02 -.346E+02 0.574E+03   -.797E+00 0.642E+00 0.426E+00   0.761E-03 0.352E-03 0.172E-01
   -.189E+02 0.120E+02 0.227E+04   0.185E+02 -.125E+02 -.227E+04   0.164E+00 0.428E+00 -.271E+01   0.724E-03 0.368E-03 0.514E-02
   -.687E+02 -.104E+03 -.194E+04   0.687E+02 0.104E+03 0.193E+04   -.165E-01 -.765E+00 0.811E+00   -.248E-02 0.147E-02 0.439E-02
   -.560E+02 -.523E+02 0.782E+03   0.557E+02 0.530E+02 -.781E+03   0.508E+00 -.464E+00 -.111E+01   -.159E-02 -.678E-03 0.143E-01
   -.142E+03 -.140E+02 -.606E+03   0.143E+03 0.142E+02 0.606E+03   -.801E+00 -.224E+00 0.312E+00   0.269E-03 -.102E-02 0.147E-01
   0.769E+02 -.449E+02 0.828E+03   -.770E+02 0.457E+02 -.829E+03   -.117E+00 -.377E+00 0.606E-01   -.248E-02 -.727E-03 0.136E-01
   0.674E+02 -.564E+02 -.551E+03   -.681E+02 0.566E+02 0.551E+03   0.696E+00 -.240E+00 0.505E+00   -.296E-02 -.169E-02 0.145E-01
   0.262E+01 -.512E+01 0.225E+04   -.245E+01 0.540E+01 -.225E+04   -.260E-01 -.201E+00 -.205E+01   -.929E-03 0.267E-02 0.593E-02
   -.410E+01 0.392E+01 -.197E+04   0.377E+01 -.455E+01 0.196E+04   0.324E+00 0.669E+00 0.404E+01   -.234E-02 -.802E-03 0.423E-02
   0.430E+02 -.568E+01 0.227E+04   -.432E+02 0.593E+01 -.227E+04   0.115E+00 -.250E+00 -.249E+01   0.501E-03 0.128E-02 0.415E-02
   0.367E+02 -.120E+02 -.203E+04   -.364E+02 0.120E+02 0.203E+04   -.367E+00 -.388E-03 0.380E+01   0.160E-02 -.931E-03 0.568E-02
   -.115E+03 0.497E+02 0.785E+03   0.115E+03 -.501E+02 -.785E+03   -.122E+00 0.238E+00 -.421E+00   0.533E-03 -.243E-02 0.146E-01
   -.848E+01 0.440E+02 0.777E+03   0.851E+01 -.442E+02 -.777E+03   0.779E-01 0.266E+00 -.647E+00   -.185E-02 -.128E-02 0.129E-01
   -.403E+02 0.246E+02 -.558E+03   0.401E+02 -.249E+02 0.558E+03   0.213E+00 0.264E+00 -.451E-01   -.222E-02 -.985E-03 0.149E-01
   -.761E+02 0.218E+02 0.222E+04   0.761E+02 -.217E+02 -.221E+04   -.114E-01 -.527E-01 -.257E+01   0.150E-02 -.612E-03 0.521E-02
   -.138E+03 -.108E+02 -.201E+04   0.139E+03 0.111E+02 0.201E+04   -.107E+01 -.269E+00 0.154E+01   0.304E-04 -.684E-03 0.362E-02
   0.529E+02 -.291E+02 -.558E+03   -.527E+02 0.295E+02 0.558E+03   -.207E+00 -.359E+00 -.235E+00   -.155E-02 0.167E-03 0.160E-01
   0.842E+02 -.662E+02 -.614E+03   -.845E+02 0.666E+02 0.615E+03   0.257E+00 -.410E+00 -.705E+00   0.201E-02 -.115E-02 0.149E-01
   0.560E+02 -.383E+01 0.226E+04   -.560E+02 0.361E+01 -.226E+04   -.220E+00 0.791E-01 -.221E+01   -.516E-03 0.102E-02 0.392E-02
   -.586E+02 -.668E+02 -.199E+04   0.595E+02 0.676E+02 0.199E+04   -.883E+00 -.834E+00 0.150E+01   -.474E-03 -.717E-03 0.600E-02
   0.546E+02 -.395E+02 -.580E+03   -.550E+02 0.397E+02 0.580E+03   0.425E+00 -.205E+00 0.425E+00   0.120E-02 0.955E-03 0.144E-01
   -.503E+02 0.319E+02 -.553E+03   0.503E+02 -.324E+02 0.553E+03   -.327E-01 0.401E+00 0.794E+00   -.784E-04 -.983E-03 0.164E-01
   -.402E+02 0.732E+02 -.533E+03   0.401E+02 -.731E+02 0.532E+03   0.423E-01 -.108E+00 0.109E+01   -.442E-03 0.705E-03 0.173E-01
   0.303E+02 0.978E+01 -.610E+03   -.303E+02 -.986E+01 0.610E+03   -.328E-02 0.110E+00 0.348E+00   -.654E-03 0.334E-02 0.158E-01
   0.254E+01 0.502E+01 0.221E+04   -.214E+01 -.486E+01 -.221E+04   -.286E+00 -.291E+00 -.241E+01   -.426E-03 -.172E-02 0.450E-02
   -.280E+02 0.113E+03 -.188E+04   0.286E+02 -.114E+03 0.188E+04   -.667E+00 0.336E+00 0.169E+01   -.174E-02 0.287E-02 0.721E-02
   -.466E+02 -.333E+02 -.197E+04   0.469E+02 0.301E+02 0.200E+04   -.263E+00 0.319E+01 -.268E+02   -.264E-02 0.237E-02 -.224E-02
   -.922E+01 0.465E+01 -.202E+04   0.754E+01 -.641E+01 0.205E+04   0.166E+01 0.176E+01 -.275E+02   -.352E-04 0.230E-03 -.263E-02
   -.370E+02 -.143E+02 -.204E+04   0.351E+02 0.137E+02 0.206E+04   0.195E+01 0.652E+00 -.272E+02   0.510E-03 -.115E-02 -.358E-02
   0.513E+02 0.141E+02 -.205E+04   -.512E+02 -.158E+02 0.207E+04   -.898E-01 0.178E+01 -.283E+02   0.166E-02 -.646E-03 -.394E-02
   -.417E+02 0.378E+02 -.198E+04   0.404E+02 -.392E+02 0.201E+04   0.126E+01 0.138E+01 -.275E+02   0.721E-04 0.102E-02 -.494E-02
   -.678E+01 -.107E+02 0.140E+03   0.412E-12 0.711E-12 -.387E-11   0.678E+01 0.107E+02 -.141E+03   0.515E-02 0.874E-04 0.709E+00

 POSITION                                       TOTAL-FORCE (eV/Angst)
     10.08740      0.00562      4.04934        -0.105207     -0.110660     -0.206003
     -2.53339      8.73512      4.08190        -0.058830      0.066377     -0.226412
      5.03058      0.01686      4.07661         0.011558     -0.172200     -0.202336
      8.81557      2.19268      4.07950        -0.000246     -0.194580     -0.244283
      1.26036      2.17683      4.06343        -0.065752      0.022289     -0.256875
      2.53423      1.44302      6.08312        -0.001814     -0.010622     -0.014511
      6.28789      2.21111      4.10570         0.052912     -0.200972     -0.342364
      3.80181      0.73423      2.00037         0.090415     -0.033083      0.450083
      3.72765      0.76399      8.10095        -0.021182      0.002572     -0.016278
      7.57968      1.43064      6.17323        -0.011914     -0.001808     -0.018829
      6.31884      0.74108      2.03384         0.080217     -0.063096      0.411850
      6.22497      0.79948      8.28204         0.004818     -0.001054      0.001405
      7.57051      4.36576      4.10283        -0.065040      0.175928     -0.442924
      5.03817      4.36229      4.08171        -0.023229      0.063772     -0.441241
      3.79818      3.60279      6.06939        -0.001896     -0.001109     -0.000116
      2.55462      2.91604      2.00083        -0.049393      0.356256      0.256866
      2.51351      2.90756      8.10561         0.017629      0.002158     -0.004299
      6.28954      3.61277      6.09938         0.009898      0.003274      0.013768
      7.58585      2.93043      2.03371         0.070073      0.005519      0.446995
      7.55155      2.91800      8.15239        -0.021038      0.021902     -0.000120
      6.29425      6.55133      4.09263         0.058346     -0.054764     -0.224712
     -2.54145      5.78892      6.10492         0.003978      0.012617      0.008938
      3.81389      6.57546      4.07284        -0.242306      0.001924     -0.199680
      1.26871      5.10416      2.04534         0.122944     -0.164222      0.414907
      1.22423      5.11575      8.19339         0.000208      0.036583      0.020480
      6.29450      5.11374      2.02823        -0.055604      0.057220      0.359206
      6.21547      5.09838      8.17095        -0.014330     -0.002001     -0.015951
     -2.53139      7.30304      2.00991         0.020713     -0.138317      0.343745
     -2.56551      7.30999      8.01213        -0.007767      0.015501      0.007589
      0.00464      7.28975      2.05722        -0.003541      0.072769      0.272809
     -0.06958      7.22959      8.17531         0.042773      0.033619      0.011914
      5.08583      7.28318      2.02757        -0.235624      0.065065      0.286448
      5.06595      7.22366      8.14140         0.014000      0.016314      0.015238
      7.54405      0.03969      4.10439         0.098065     -0.021542     -0.382469
     -0.01125      1.43550      6.05955        -0.007011     -0.016749     -0.021882
      3.74186      2.14689      4.07389         0.191753     -0.025929     -0.465922
      1.31001      0.72945      2.02674         0.139185     -0.137148      0.165673
      1.31712      0.79520      8.09266         0.001207      0.027532     -0.007807
      5.10362      1.36785      6.09413        -0.030602      0.038981     -0.004384
      8.82791      0.75063      2.00000        -0.226957     -0.107598      0.276795
      8.83274      0.78231      8.26811        -0.014721      0.022324      0.008177
     -0.02406      4.34464      4.11684         0.252052      0.153981     -0.336194
     -1.35194      3.63180      6.10055         0.000452      0.002858     -0.038550
      2.55702      4.37025      4.05869        -0.239881      0.433324     -0.878278
      1.29711      3.62667      6.09483        -0.035057      0.036017     -0.024076
      0.02215      2.94990      2.02984         0.139095      0.074644      0.425207
     -0.01328      2.95010      8.03884        -0.002865      0.034304     -0.014852
      5.09719      2.93887      2.04043        -0.117766      0.023787     -0.045331
      5.02110      2.95775      8.03950         0.005396      0.006096      0.020156
     -1.32764      6.58396      4.11125         0.170252     -0.237993     -0.356318
      1.24700      6.55932      4.09363         0.112395      0.034089     -0.038939
      0.04848      5.77609      6.15121         0.031492     -0.009667      0.026025
     -1.29718      5.12819      2.06865         0.026576      0.065025      0.219114
     -1.28718      5.14953      8.20934        -0.005817      0.006447     -0.001992
      2.57281      5.81184      6.09640        -0.021579      0.016094      0.008378
      5.05502      5.74455      6.10782         0.006064      0.034419     -0.003715
      3.79261      5.11061      2.02334        -0.268572     -0.149065      1.055477
      3.76031      5.15611      8.19857         0.001259     -0.014873     -0.022754
     -3.80174      7.97183      6.04558         0.011678      0.003350      0.002476
     -1.26288      7.96412      6.09455         0.030753     -0.047553     -0.026972
      1.23274      7.97983      6.05091         0.020974     -0.038735      0.038093
      3.78207      7.99654      6.12671         0.005052      0.041602     -0.023820
      2.54183      7.29082      2.05307         0.125526     -0.134609      0.036835
      2.44969      7.26246      8.14310        -0.020891      0.029420      0.013232
      0.14453      0.02086      9.22666         0.018440      0.005881     -0.019032
      2.56001      4.35029      9.29517        -0.012269     -0.000933     -0.010449
      7.55342      4.39115      9.29362         0.016271      0.002143      0.001679
     -0.20412      8.71574      9.26249        -0.011691      0.006926     -0.004621
      2.51840      8.69376      9.29192        -0.004026     -0.040017     -0.034264
    total drift:                                0.004205     -0.002978      0.002848

  FREE ENERGIE OF THE ION-ELECTRON SYSTEM (eV)
  free  energy   TOTEN  =      -464.87848831 eV

  energy  without entropy=     -464.87848831  energy(sigma->0) =     -464.87848831

 stress matrix after NEB project (eV)
    -33.42220     -0.19662      0.29097
     -0.19662    -38.57941      1.37004
      0.29097      1.37004    -11.92465
  FORCES: max atom, RMS     0.062725    0.024462
  FORCE total and by dimension    0.203193    0.047553
  Stress total and by dimension   52.455814   38.579410
 writing wavefunctions

 total charge

[...]

 magnetization (x)

# of ion       s       p       d       tot
    1       -0.019  -0.049   0.768   0.699
    2       -0.021  -0.036   0.606   0.549
    3       -0.005  -0.014   0.162   0.143
    4       -0.013  -0.027   0.483   0.443
    5       -0.009  -0.026   0.341   0.306
    6       -0.014  -0.031   0.445   0.401
    7       -0.011  -0.025   0.413   0.377
    8       -0.016  -0.023   0.614   0.575
    9       -0.009  -0.016   0.201   0.176
   10       -0.008  -0.021   0.286   0.256
   11       -0.019  -0.026   0.670   0.625
   12       -0.000  -0.004   0.010   0.006
   13       -0.014  -0.038   0.707   0.655
   14       -0.010  -0.026   0.516   0.481
   15       -0.016  -0.037   0.515   0.462
   16       -0.004  -0.017   0.209   0.187
   17       -0.014  -0.022   0.477   0.441
   18       -0.011  -0.024   0.502   0.467
   19       -0.004  -0.023   0.435   0.408
   20       -0.014  -0.015   0.561   0.532
   21       -0.013  -0.033   0.700   0.654
   22       -0.022  -0.049   0.721   0.651
   23       -0.012  -0.027   0.435   0.396
   24       -0.001  -0.010   0.083   0.072
   25       -0.020  -0.028   0.547   0.499
   26       -0.012  -0.022   0.527   0.492
   27       -0.015  -0.026   0.565   0.524
   28       -0.012  -0.024   0.668   0.632
   29       -0.020  -0.014   0.715   0.681
   30       -0.010  -0.023   0.346   0.312
   31       -0.016  -0.019   0.395   0.361
   32       -0.017  -0.033   0.619   0.569
   33       -0.017  -0.027   0.551   0.508
   34        0.010  -0.007   2.492   2.494
   35       -0.003  -0.031   2.599   2.566
   36        0.019   0.001   2.672   2.692
   37        0.024   0.011   2.859   2.894
   38        0.008   0.005   2.447   2.460
   39       -0.027  -0.040  -2.458  -2.524
   40        0.017  -0.005   2.796   2.808
   41        0.005   0.000   2.230   2.236
   42        0.006  -0.005   2.173   2.175
   43       -0.005  -0.028   2.640   2.607
   44       -0.026  -0.036  -2.370  -2.433
   45       -0.002  -0.014   2.453   2.437
   46       -0.052  -0.051  -2.671  -2.773
   47       -0.005  -0.013   2.830   2.812
   48        0.024  -0.002   2.906   2.928
   49        0.021   0.010   2.899   2.930
   50        0.004  -0.015   2.554   2.542
   51       -0.026  -0.036  -2.152  -2.215
   52        0.002  -0.014   2.238   2.226
   53        0.018   0.005   2.813   2.836
   54        0.013   0.003   2.627   2.643
   55        0.005  -0.011   2.190   2.185
   56        0.002  -0.010   2.586   2.579
   57       -0.012  -0.010  -0.111  -0.133
   58        0.007  -0.003   2.429   2.433
   59       -0.002  -0.024   2.704   2.679
   60        0.009   0.002   2.519   2.531
   61       -0.027  -0.039  -1.992  -2.058
   62       -0.005  -0.029   2.505   2.471
   63        0.021   0.001   2.732   2.754
   64        0.011  -0.001   2.523   2.534
   65        0.003   0.088   0.000   0.091
   66        0.002   0.066   0.000   0.069
   67        0.002   0.092   0.000   0.095
   68        0.000   0.009   0.000   0.009
   69        0.002   0.040   0.000   0.042
tot         -0.373  -0.924  68.453  67.156

 BZINTS: Fermi energy: -0.032197;608.000000 electrons
         Band energy:***********;  BLOECHL correction: -0.009751