 vasp.5.4.4.18Apr17-6-g9f103f2a35 (build Dec 15 2018 21:27:54) gamma-only

 executed on             LinuxIFC date 2022.03.12  00:21:37

 INCAR:
 POTCAR:    PAW_PBE Ni 02Aug2007
 POTCAR:    PAW_PBE Fe 06Sep2000
 POTCAR:    PAW_PBE O 08Apr2002

 POTCAR:    PAW_PBE Ni 02Aug2007
   VRHFIN =Ni:

   TITEL  = PAW_PBE Ni 02Aug2007
   POMASS =   58.690; ZVAL   =   10.000    mass and valenz
   ENMAX  =  269.532; ENMIN  =  202.149 eV

 POTCAR:    PAW_PBE Fe 06Sep2000
   VRHFIN =Fe:  d7 s1

   TITEL  = PAW_PBE Fe 06Sep2000
   POMASS =   55.847; ZVAL   =    8.000    mass and valenz
   ENMAX  =  267.882; ENMIN  =  200.911 eV

 POTCAR:    PAW_PBE O 08Apr2002
   VRHFIN =O: s2p4

   TITEL  = PAW_PBE O 08Apr2002
   POMASS =   16.000; ZVAL   =    6.000    mass and valenz
   ENMAX  =  400.000; ENMIN  =  300.000 eV

 Optimization of the real space projectors (new method)

 maximal supplied QI-value         = 16.25
 optimisation between [QCUT,QGAM] = [ 11.54, 23.24] = [ 37.28,151.24] Ry
 Optimized for a Real-space Cutoff    1.45 Angstroem

   l    n(q)    QCUT    max X(q) W(low)/X(q) W(high)/X(q)  e(spline)
   2      9    11.539    60.317    0.19E-03    0.47E-04    0.16E-06
   2      9    11.539    55.921    0.19E-03    0.48E-04    0.16E-06
   0     10    11.539    51.690    0.80E-04    0.50E-04    0.24E-06
   0     10    11.539    30.015    0.73E-04    0.45E-04    0.22E-06
   1     10    11.539    18.849    0.87E-04    0.16E-03    0.71E-07
   1     10    11.539    14.624    0.73E-04    0.13E-03    0.64E-07
 Optimization of the real space projectors (new method)

[...]

   l    n(q)    QCUT    max X(q) W(low)/X(q) W(high)/X(q)  e(spline)
   2     10    11.539    80.901    0.11E-03    0.14E-03    0.21E-06
   2     10    11.539    75.754    0.11E-03    0.14E-03    0.22E-06
   0     11    11.539    58.752    0.52E-04    0.18E-04    0.33E-06
   0     11    11.539    30.679    0.44E-04    0.16E-04    0.30E-06
   1     10    11.539    17.977    0.53E-04    0.29E-04    0.13E-06
   1     10    11.539    13.559    0.44E-04    0.25E-04    0.11E-06
 Optimization of the real space projectors (new method)

 maximal supplied QI-value         = 24.76
 optimisation between [QCUT,QGAM] = [ 11.64, 23.27] = [ 37.91,151.63] Ry
 Optimized for a Real-space Cutoff    1.14 Angstroem

   l    n(q)    QCUT    max X(q) W(low)/X(q) W(high)/X(q)  e(spline)
   0      8    11.635    20.381    0.10E-03    0.33E-03    0.24E-06
   0      8    11.635    15.268    0.11E-03    0.35E-03    0.26E-06
   1      7    11.635     5.964    0.24E-03    0.31E-03    0.30E-06
   1      7    11.635     5.382    0.22E-03    0.25E-03    0.26E-06
  PAW_PBE Ni 02Aug2007                  :
  PAW_PBE Fe 06Sep2000                  :
  PAW_PBE O 08Apr2002                   :

 POSCAR: POSCAR
  positions in direct lattice
  velocities in cartesian coordinates
 exchange correlation table for  LEXCH =        8
   RHO(1)=    0.500       N(1)  =     2000
   RHO(2)=  100.500       N(2)  =     4000

 VTST: version 3.2, (02/03/18)

 CHAIN: initializing optimizer

 OPT: Using VASP Dynamics algorithm
 CHAIN: Read ICHAIN            0

 POSCAR: POSCAR
  positions in direct lattice
  velocities in cartesian coordinates

 ion  position               nearest neighbor table
   1  0.999  0.001  0.191-  35 2.47  59 2.49  23 2.50  32 2.50   5 2.52  40 2.52  37 2.52   2 2.53
                             4 2.53  21 2.54  62 2.54  34 2.54
   2  0.248  0.999  0.192-  59 2.46  50 2.47   6 2.47  36 2.48  37 2.50  60 2.50   3 2.51  28 2.52
                             5 2.52  21 2.53   1 2.53   8 2.56
   3  0.499  0.002  0.192-  39 2.43  61 2.47  36 2.49  30 2.50  60 2.50  34 2.51   2 2.51   8 2.52
                            11 2.52   7 2.53  50 2.54  51 2.54
   4  0.998  0.251  0.192-  35 2.47  43 2.48  42 2.49  19 2.50  34 2.50  13 2.50   7 2.53   1 2.53
                            40 2.53   5 2.55  46 2.55  10 2.55
   5  0.249  0.249  0.191-  35 2.48  36 2.48  45 2.50   6 2.50  37 2.50  46 2.50   1 2.52  42 2.52
                             2 2.52  16 2.54   4 2.55  44 2.55
   6  0.333  0.165  0.286-  38 2.44   9 2.44  36 2.45   2 2.47  17 2.50   5 2.50  15 2.50  45 2.51
                            35 2.55  60 2.55  59 2.56  39 2.57
   7  0.749  0.253  0.193-  18 2.44  39 2.46  14 2.49  48 2.49  13 2.51  34 2.51   4 2.53   3 2.53
                            11 2.54  36 2.55  19 2.55  10 2.56
   8  0.418  0.084  0.094-  37 2.49  36 2.51  16 2.51   3 2.52  11 2.52  30 2.53  28 2.53  48 2.56
                             2 2.56
   9  0.413  0.087  0.381-  68 1.80  38 2.41   6 2.44  17 2.46  12 2.50  39 2.51  29 2.53  60 2.53
                            49 2.55  31 2.60
  10  0.832  0.164  0.290-  20 2.48  39 2.48  34 2.49  43 2.49  35 2.51  62 2.52  41 2.53  18 2.54
                             4 2.55  61 2.55   7 2.56  12 2.58
  11  0.668  0.085  0.096-  34 2.51  40 2.51  48 2.51   8 2.52   3 2.52  19 2.53  30 2.54  63 2.54
                             7 2.54
  12  0.662  0.091  0.390-  69 1.88  68 1.88  49 2.48  20 2.50   9 2.50  39 2.52  10 2.58  41 2.61
                            64 2.62  31 2.63  61 2.73
  13  0.999  0.499  0.193-  43 2.43  22 2.46  18 2.49  53 2.50   4 2.50  42 2.51   7 2.51  19 2.52
                            50 2.52  21 2.53  14 2.53  26 2.55
  14  0.748  0.499  0.192-  56 2.45  15 2.46  44 2.48   7 2.49  48 2.49  18 2.49  57 2.52  26 2.52
                            21 2.52  23 2.53  13 2.53  36 2.57
  15  0.582  0.412  0.286-  49 2.41  14 2.46  36 2.47  56 2.48  44 2.48  18 2.49  45 2.50   6 2.50
                            17 2.51  55 2.53  39 2.59  58 2.64
  16  0.420  0.333  0.094-  36 2.51   8 2.51  37 2.52  57 2.52  44 2.52  46 2.53  24 2.54  48 2.54
                             5 2.54
  17  0.415  0.332  0.381-  66 1.87  38 2.43  45 2.46   9 2.46   6 2.50  15 2.51  49 2.51  47 2.53
                            25 2.56  58 2.57
  18  0.829  0.413  0.287-  49 2.41   7 2.44  43 2.46  56 2.46  13 2.49  14 2.49  15 2.49  20 2.51
                            22 2.52  10 2.54  39 2.54  27 2.55
  19  0.919  0.335  0.096-  48 2.49   4 2.50  40 2.51  53 2.51  13 2.52  11 2.53  26 2.54  46 2.54
                             7 2.55
  20  0.914  0.334  0.384-  67 1.86  10 2.48  43 2.48  41 2.49  12 2.50  18 2.51  49 2.53  47 2.54
                            27 2.56  54 2.56
  21  0.998  0.749  0.193-  59 2.41  50 2.48  23 2.48  22 2.50  56 2.50  32 2.50  26 2.52  14 2.52
                             2 2.53  13 2.53   1 2.54  28 2.55
  22  0.079  0.662  0.287-  29 2.44  13 2.46  43 2.46  50 2.47  21 2.50  56 2.50  18 2.52  59 2.52
                            60 2.52  54 2.53  27 2.56  52 2.59
  23  0.753  0.752  0.192-  21 2.48  63 2.49  55 2.49   1 2.50  62 2.50  32 2.51  57 2.52  56 2.52
                            14 2.53  44 2.54  51 2.57  34 2.58
  24  0.417  0.584  0.096-  46 2.49  44 2.50  51 2.51  57 2.52  30 2.52  63 2.53  16 2.54  42 2.56
                            53 2.57
  25  0.414  0.585  0.386-  66 1.89  52 2.45  64 2.47  31 2.48  47 2.50  54 2.51  58 2.54  17 2.56
                            45 2.57  55 2.59
  26  0.916  0.585  0.095-  48 2.48  32 2.48  57 2.50  53 2.51  21 2.52  14 2.52  28 2.53  19 2.54
                            13 2.55
  27  0.907  0.583  0.384-  67 1.88  33 2.42  56 2.45  49 2.45  58 2.46  18 2.55  20 2.56  22 2.56
                            29 2.58  54 2.60
  28  0.167  0.835  0.095-  32 2.48  37 2.49  53 2.50   2 2.52  50 2.53   8 2.53  26 2.53  30 2.54
                            21 2.55
  29  0.164  0.836  0.377-  60 2.41  59 2.42  22 2.44  33 2.47  31 2.50  54 2.52  38 2.52   9 2.53
                            27 2.58
  30  0.417  0.833  0.097-  51 2.49   3 2.50  53 2.52  24 2.52   8 2.53  11 2.54  28 2.54  63 2.54
                            50 2.55
  31  0.406  0.827  0.385-  68 1.85  54 2.41  25 2.48  52 2.49  29 2.50  60 2.51  64 2.52  61 2.60
                             9 2.60  12 2.63
  32  0.920  0.833  0.095-  28 2.48  26 2.48   1 2.50  21 2.50  23 2.51  57 2.53  37 2.54  63 2.54
                            40 2.57
  33  0.914  0.826  0.383-  65 1.89  27 2.42  58 2.45  29 2.47  62 2.51  56 2.51  59 2.54  64 2.62
                            41 2.64  38 2.66
  34  0.749  0.005  0.193-  61 2.46  10 2.49   4 2.50  11 2.51   7 2.51   3 2.51  62 2.52  63 2.54
                             1 2.54  51 2.55  40 2.57  23 2.58
  35  0.081  0.164  0.285-   1 2.47   4 2.47   5 2.48  47 2.49  38 2.51  10 2.51  62 2.52  59 2.54
                             6 2.55  45 2.55  43 2.57  41 2.62
  36  0.493  0.245  0.192-   6 2.45  15 2.47   5 2.48   2 2.48   3 2.49  16 2.51   8 2.51  44 2.52
                             7 2.55  39 2.56  14 2.57  48 2.57
  37  0.171  0.083  0.095-  28 2.49   8 2.49   2 2.50   5 2.50  16 2.52   1 2.52  32 2.54  46 2.57
                            40 2.58
  38  0.176  0.091  0.381-  65 1.81   9 2.41  17 2.43   6 2.44  35 2.51  29 2.52  47 2.53  59 2.58
                            41 2.59  33 2.66
  39  0.583  0.156  0.287-   3 2.43  61 2.44   7 2.46  10 2.48   9 2.51  49 2.51  60 2.52  12 2.52
                            18 2.54  36 2.56   6 2.57  15 2.59
  40  0.917  0.086  0.094-  19 2.51  11 2.51   1 2.52  63 2.53   4 2.53  46 2.55  34 2.57  32 2.57
                            37 2.58
  41  0.919  0.089  0.389-  69 1.83  65 1.87  20 2.49  47 2.51  10 2.53  38 2.59  12 2.61  35 2.62
                            64 2.63  62 2.63  33 2.64
  42  0.246  0.497  0.194-  45 2.48  52 2.49  43 2.49   4 2.49  13 2.51  46 2.51   5 2.52  53 2.54
                            51 2.55  24 2.56  44 2.58  50 2.59
  43  0.074  0.415  0.287-  13 2.43  47 2.45  18 2.46  22 2.46  20 2.48   4 2.48  42 2.49  10 2.49
                            52 2.56  35 2.57  54 2.60  45 2.65
  44  0.503  0.500  0.191-  14 2.48  15 2.48  57 2.49  55 2.50  24 2.50  45 2.51  36 2.52  16 2.52
                            23 2.54   5 2.55  51 2.55  42 2.58
  45  0.336  0.415  0.287-  47 2.44  17 2.46  42 2.48  52 2.49   5 2.50  15 2.50  44 2.51   6 2.51
                            55 2.53  35 2.55  25 2.57  43 2.65
  46  0.171  0.337  0.096-  24 2.49   5 2.50  42 2.51  16 2.53  19 2.54   4 2.55  53 2.55  40 2.55
                            37 2.57
  47  0.167  0.337  0.378-  45 2.44  43 2.45  35 2.49  25 2.50  41 2.51  17 2.53  38 2.53  20 2.54
                            54 2.55
  48  0.673  0.336  0.096-  26 2.48  19 2.49  14 2.49   7 2.49  11 2.51  57 2.53  16 2.54   8 2.56
                            36 2.57
  49  0.666  0.338  0.378-  15 2.41  18 2.41  27 2.45  12 2.48  17 2.51  39 2.51  20 2.53  58 2.54
                             9 2.55
  50  0.245  0.753  0.193-  60 2.42  22 2.47   2 2.47  21 2.48  53 2.51  13 2.52  28 2.53   3 2.54
                            30 2.55  51 2.57  52 2.59  42 2.59
  51  0.498  0.750  0.193-  61 2.42  30 2.49  52 2.51  24 2.51  55 2.52  63 2.52   3 2.54  44 2.55
                            34 2.55  42 2.55  23 2.57  50 2.57
  52  0.335  0.660  0.289-  25 2.45  45 2.49  42 2.49  31 2.49  61 2.50  51 2.51  55 2.53  54 2.53
                            60 2.55  43 2.56  50 2.59  22 2.59
  53  0.165  0.586  0.097-  13 2.50  28 2.50  50 2.51  26 2.51  19 2.51  30 2.52  42 2.54  46 2.55
[...]
     -1.35194      3.63180      6.10055         1.968262      0.200761      0.222263
      2.55702      4.37025      4.05869        -0.463449      0.196251     -0.039300
      1.29711      3.62667      6.09483        -0.980356      0.434366     -0.250763
      0.02215      2.94990      2.02984        -0.280831     -0.252903      1.052097
     -0.01328      2.95010      8.03884        -0.392000     -0.395635     -0.930920
      5.09719      2.93887      2.04043        -0.697657      0.047693      0.862580
      5.02110      2.95775      8.03950        -0.097234     -0.391647     -0.370036
     -1.32764      6.58396      4.11125         1.141814     -0.726408      0.026819
      1.24700      6.55932      4.09363         0.094438     -0.029348      0.395732
      0.04848      5.77609      6.15121        -0.219270      0.259052     -0.626368
     -1.29718      5.12819      2.06865         0.543873     -0.247337      0.888160
     -1.28718      5.14953      8.20934        -0.107947     -1.103522     -0.723666
      2.57281      5.81184      6.09640        -0.185199     -0.219302     -0.499524
      5.05502      5.74455      6.10782        -0.454904      1.181718      0.157954
      3.79261      5.11061      2.02334        -0.252212     -0.229331      1.012573
      3.76031      5.15611      8.19857        -0.614922     -0.265267     -0.747471
     -3.80174      7.97183      6.04558        -0.334554      0.480188      0.327833
     -1.26288      7.96412      6.09455         0.371861     -0.085865     -0.718105
      1.23274      7.97983      6.05091         0.438562     -0.413517     -0.019429
      3.78207      7.99654      6.12671        -0.242565      0.015631     -0.334671
      2.54183      7.29082      2.05307         0.203568      0.232758      0.960378
      2.44969      7.26246      8.14310         0.634742      1.071639     -0.171338
      0.14453      0.02086      9.22666         0.218662      0.406384     -0.297346
      2.56001      4.35029      9.29517         0.423036      0.233337     -0.445948
      7.55342      4.39115      9.29362         0.399331      0.467793     -0.503031
     -0.20412      8.71574      9.26249         0.076934     -0.065194      0.017123
      2.51840      8.69376      9.27692        -0.006814     -0.572674     -0.444421
    total drift:                                0.003536     -0.001271      0.007138

  FREE ENERGIE OF THE ION-ELECTRON SYSTEM (eV)
  free  energy   TOTEN  =      -455.80913136 eV

  energy  without entropy=     -452.82316699  energy(sigma->0) =     -454.31614918

 d Force = 0.1935525E-01[ 0.133E-01, 0.254E-01]  d Energy = 0.1941194E-01-0.567E-04
 d Force =-0.6022390E+02[-0.602E+02,-0.602E+02]  d Ewald  =-0.6022519E+02 0.129E-02

 stress matrix after NEB project (eV)
   -107.67509     -0.28342      1.81282
     -0.28342   -109.51324      0.35194
      1.81282      0.35194    -48.46014
  FORCES: max atom, RMS     0.724922    0.087270
  FORCE total and by dimension    0.724922    0.572674
  Stress total and by dimension  161.066576  109.513243
 Finite differences progress:
  Degree of freedom:   3/  3
  Displacement:        2/  2
  Total:               6/  6

 SECOND DERIVATIVES (NOT SYMMETRIZED)
              69X         69Y         69Z
 69X   -12.544800   -0.822590    1.011191
 69Y    -0.807044   -7.775348    0.303188
 69Z     1.110550    0.153982  -13.383573

 Eigenvectors and eigenvalues of the dynamical matrix

   1 f  =   14.713043 THz    92.444773 2PiTHz  490.774259 cm-1    60.848275 meV
             X         Y         Z           dx          dy          dz
     10.087402  0.005616  4.049338            0           0           0
     -2.533390  8.735124  4.081899            0           0           0
      5.030576  0.016856  4.076606            0           0           0
      8.815571  2.192677  4.079497            0           0           0
      1.260357  2.176827  4.063429            0           0           0
      2.534232  1.443025  6.083122            0           0           0
      6.287892  2.211107  4.105703            0           0           0
      3.801807  0.734234  2.000365            0           0           0
      3.727651  0.763986  8.100953            0           0           0
      7.579678  1.430643  6.173227            0           0           0
      6.318840  0.741083  2.033840            0           0           0
      6.224971  0.799481  8.282042            0           0           0
      7.570506  4.365760  4.102834            0           0           0
      5.038171  4.362287  4.081707            0           0           0
      3.798181  3.602793  6.069388            0           0           0
      2.554616  2.916038  2.000833            0           0           0
      2.513511  2.907556  8.105612            0           0           0
      6.289537  3.612767  6.099383            0           0           0
      7.585848  2.930427  2.033712            0           0           0
      7.551554  2.917996  8.152389            0           0           0
      6.294246  6.551326  4.092632            0           0           0
     -2.541455  5.788923  6.104916            0           0           0
      3.813887  6.575459  4.072844            0           0           0
      1.268710  5.104157  2.045338            0           0           0
      1.224229  5.115751  8.193393            0           0           0
      6.294498  5.113735  2.028229            0           0           0
      6.215467  5.098378  8.170950            0           0           0
     -2.531390  7.303045  2.009908            0           0           0
     -2.565507  7.309992  8.012132            0           0           0
      0.004636  7.289749  2.057219            0           0           0
     -0.069584  7.229585  8.175307            0           0           0
      5.085834  7.283180  2.027570            0           0           0
      5.065949  7.223658  8.141401            0           0           0
      7.544053  0.039694  4.104385            0           0           0
     -0.011250  1.435500  6.059555            0           0           0
      3.741862  2.146894  4.073886            0           0           0
      1.310005  0.729449  2.026741            0           0           0
      1.317116  0.795196  8.092660            0           0           0
      5.103616  1.367851  6.094126            0           0           0
      8.827908  0.750635  2.000004            0           0           0
      8.832736  0.782315  8.268113            0           0           0
     -0.024064  4.344636  4.116840            0           0           0
     -1.351939  3.631804  6.100553            0           0           0
      2.557020  4.370247  4.058689            0           0           0
      1.297106  3.626674  6.094831            0           0           0
      0.022150  2.949898  2.029844            0           0           0
     -0.013280  2.950096  8.038839            0           0           0
      5.097187  2.938868  2.040429            0           0           0
      5.021102  2.957753  8.039496            0           0           0
     -1.327635  6.583961  4.111250            0           0           0
      1.246999  6.559320  4.093631            0           0           0
      0.048481  5.776087  6.151207            0           0           0
     -1.297178  5.128186  2.068654            0           0           0
     -1.287179  5.149530  8.209341            0           0           0
      2.572810  5.811844  6.096396            0           0           0
      5.055016  5.744547  6.107816            0           0           0
      3.792606  5.110613  2.023341            0           0           0
      3.760307  5.156105  8.198572            0           0           0
     -3.801740  7.971832  6.045577            0           0           0
     -1.262884  7.964118  6.094546            0           0           0
      1.232735  7.979830  6.050909            0           0           0
      3.782068  7.996536  6.126706            0           0           0
      2.541829  7.290825  2.053075            0           0           0
      2.449687  7.262463  8.143103            0           0           0
      0.144534  0.020856  9.226656            0           0           0
      2.560006  4.350286  9.295173            0           0           0
      7.553419  4.391155  9.293617            0           0           0
     -0.204124  8.715737  9.262494            0           0           0
      2.518400  8.693760  9.291919    -0.578878   -0.102650    0.808927

[...]

   3 f  =   10.802475 THz    67.873950 2PiTHz  360.331757 cm-1    44.675460 meV
             X         Y         Z           dx          dy          dz
     10.087402  0.005616  4.049338            0           0           0
     -2.533390  8.735124  4.081899            0           0           0
      5.030576  0.016856  4.076606            0           0           0
      8.815571  2.192677  4.079497            0           0           0
      1.260357  2.176827  4.063429            0           0           0
      2.534232  1.443025  6.083122            0           0           0
      6.287892  2.211107  4.105703            0           0           0
      3.801807  0.734234  2.000365            0           0           0
      3.727651  0.763986  8.100953            0           0           0
      7.579678  1.430643  6.173227            0           0           0
      6.318840  0.741083  2.033840            0           0           0
      6.224971  0.799481  8.282042            0           0           0
      7.570506  4.365760  4.102834            0           0           0
      5.038171  4.362287  4.081707            0           0           0
      3.798181  3.602793  6.069388            0           0           0
      2.554616  2.916038  2.000833            0           0           0
      2.513511  2.907556  8.105612            0           0           0
      6.289537  3.612767  6.099383            0           0           0
      7.585848  2.930427  2.033712            0           0           0
      7.551554  2.917996  8.152389            0           0           0
      6.294246  6.551326  4.092632            0           0           0
     -2.541455  5.788923  6.104916            0           0           0
      3.813887  6.575459  4.072844            0           0           0
      1.268710  5.104157  2.045338            0           0           0
      1.224229  5.115751  8.193393            0           0           0
      6.294498  5.113735  2.028229            0           0           0
      6.215467  5.098378  8.170950            0           0           0
     -2.531390  7.303045  2.009908            0           0           0
     -2.565507  7.309992  8.012132            0           0           0
      0.004636  7.289749  2.057219            0           0           0
     -0.069584  7.229585  8.175307            0           0           0
      5.085834  7.283180  2.027570            0           0           0
      5.065949  7.223658  8.141401            0           0           0
      7.544053  0.039694  4.104385            0           0           0
     -0.011250  1.435500  6.059555            0           0           0
      3.741862  2.146894  4.073886            0           0           0
      1.310005  0.729449  2.026741            0           0           0
      1.317116  0.795196  8.092660            0           0           0
      5.103616  1.367851  6.094126            0           0           0
      8.827908  0.750635  2.000004            0           0           0
      8.832736  0.782315  8.268113            0           0           0
     -0.024064  4.344636  4.116840            0           0           0
     -1.351939  3.631804  6.100553            0           0           0
      2.557020  4.370247  4.058689            0           0           0
      1.297106  3.626674  6.094831            0           0           0
      0.022150  2.949898  2.029844            0           0           0
     -0.013280  2.950096  8.038839            0           0           0
      5.097187  2.938868  2.040429            0           0           0
      5.021102  2.957753  8.039496            0           0           0
     -1.327635  6.583961  4.111250            0           0           0
      1.246999  6.559320  4.093631            0           0           0
      0.048481  5.776087  6.151207            0           0           0
     -1.297178  5.128186  2.068654            0           0           0
     -1.287179  5.149530  8.209341            0           0           0
      2.572810  5.811844  6.096396            0           0           0
      5.055016  5.744547  6.107816            0           0           0
      3.792606  5.110613  2.023341            0           0           0
      3.760307  5.156105  8.198572            0           0           0
     -3.801740  7.971832  6.045577            0           0           0
     -1.262884  7.964118  6.094546            0           0           0
      1.232735  7.979830  6.050909            0           0           0
      3.782068  7.996536  6.126706            0           0           0
      2.541829  7.290825  2.053075            0           0           0
      2.449687  7.262463  8.143103            0           0           0
      0.144534  0.020856  9.226656            0           0           0
      2.560006  4.350286  9.295173            0           0           0
      7.553419  4.391155  9.293617            0           0           0
     -0.204124  8.715737  9.262494            0           0           0
      2.518400  8.693760  9.291919     0.161885   -0.986765   -0.009370

 Finite differences POTIM=  1.500000000000000E-002

 total charge

# of ion       s       p       d       tot
    1        0.498   0.499   8.301   9.298
    2        0.504   0.507   8.307   9.318
    3        0.509   0.510   8.311   9.330
    4        0.500   0.499   8.305   9.303
    5        0.506   0.511   8.292   9.309
    6        0.518   0.521   8.317   9.356
    7        0.494   0.490   8.308   9.292
    8        0.488   0.354   8.311   9.153
    9        0.519   0.545   8.323   9.387
   10        0.509   0.503   8.303   9.315
   11        0.496   0.361   8.309   9.165
   12        0.467   0.553   8.322   9.342
   13        0.497   0.496   8.318   9.310
   14        0.501   0.504   8.312   9.317
   15        0.520   0.520   8.312   9.351
   16        0.502   0.373   8.294   9.169
   17        0.501   0.509   8.326   9.336
   18        0.515   0.506   8.328   9.349
   19        0.496   0.368   8.303   9.167
   20        0.491   0.494   8.331   9.316
   21        0.493   0.486   8.327   9.306
   22        0.513   0.507   8.315   9.335
   23        0.503   0.508   8.291   9.303
   24        0.505   0.379   8.292   9.177
   25        0.497   0.505   8.310   9.312
   26        0.495   0.362   8.316   9.172
   27        0.494   0.494   8.319   9.308
   28        0.495   0.357   8.313   9.165
   29        0.496   0.371   8.369   9.236
   30        0.490   0.360   8.305   9.155
   31        0.504   0.504   8.310   9.318
   32        0.495   0.367   8.310   9.172
   33        0.490   0.481   8.316   9.287
   34        0.456   0.484   6.244   7.184
   35        0.467   0.488   6.256   7.211
   36        0.455   0.478   6.256   7.189
   37        0.448   0.344   6.246   7.038
   38        0.473   0.514   6.309   7.296
   39        0.469   0.483   6.275   7.227
   40        0.448   0.341   6.232   7.021
   41        0.445   0.567   6.313   7.325
   42        0.467   0.494   6.249   7.211
   43        0.471   0.493   6.269   7.234
   44        0.461   0.489   6.252   7.202
   45        0.473   0.490   6.276   7.239
   46        0.451   0.348   6.241   7.040
   47        0.463   0.366   6.290   7.120
   48        0.448   0.345   6.247   7.040
   49        0.447   0.358   6.307   7.112
   50        0.458   0.488   6.249   7.196
   51        0.467   0.487   6.256   7.210
   52        0.478   0.504   6.264   7.246
   53        0.453   0.347   6.245   7.045
   54        0.460   0.488   6.280   7.227
   55        0.480   0.503   6.268   7.252
   56        0.471   0.494   6.276   7.241
   57        0.454   0.354   6.246   7.054
   58        0.472   0.512   6.291   7.275
   59        0.467   0.486   6.272   7.225
   60        0.471   0.488   6.284   7.244
   61        0.482   0.495   6.274   7.251
   62        0.465   0.480   6.252   7.196
   63        0.453   0.349   6.244   7.046
   64        0.455   0.468   6.314   7.237
   65        1.585   3.342   0.000   4.928
   66        1.584   3.331   0.000   4.915
   67        1.583   3.334   0.000   4.916
   68        1.585   3.335   0.000   4.920
   69        1.588   3.347   0.000   4.935
tot         38.757  46.014 468.607 553.378