 vasp.5.4.4.18Apr17-6-g9f103f2a35 (build Dec 15 2018 21:27:11) complex

 executed on             LinuxIFC date 2022.03.05  22:35:53

 INCAR:
 POTCAR:    PAW_PBE Fe 06Sep2000
 POTCAR:    PAW_PBE Ni 02Aug2007
 POTCAR:    PAW_PBE O 08Apr2002
 POTCAR:    PAW_PBE H 15Jun2001

 POTCAR:    PAW_PBE Fe 06Sep2000
   VRHFIN =Fe:  d7 s1

   TITEL  = PAW_PBE Fe 06Sep2000
   POMASS =   55.847; ZVAL   =    8.000    mass and valenz
   ENMAX  =  267.882; ENMIN  =  200.911 eV

 POTCAR:    PAW_PBE Ni 02Aug2007
   VRHFIN =Ni:

   TITEL  = PAW_PBE Ni 02Aug2007
   POMASS =   58.690; ZVAL   =   10.000    mass and valenz
   ENMAX  =  269.532; ENMIN  =  202.149 eV

 POTCAR:    PAW_PBE O 08Apr2002
   VRHFIN =O: s2p4

   TITEL  = PAW_PBE O 08Apr2002
   POMASS =   16.000; ZVAL   =    6.000    mass and valenz
   ENMAX  =  400.000; ENMIN  =  300.000 eV

 POTCAR:    PAW_PBE H 15Jun2001
   VRHFIN =H: ultrasoft test

   TITEL  = PAW_PBE H 15Jun2001
   POMASS =    1.000; ZVAL   =    1.000    mass and valenz
   ENMAX  =  250.000; ENMIN  =  200.000 eV

 Optimization of the real space projectors (new method)

 maximal supplied QI-value         = 16.25
 optimisation between [QCUT,QGAM] = [ 11.54, 23.24] = [ 37.28,151.24] Ry
 Optimized for a Real-space Cutoff    1.53 Angstroem

   l    n(q)    QCUT    max X(q) W(low)/X(q) W(high)/X(q)  e(spline)
   2     10    11.539    80.901    0.11E-03    0.14E-03    0.21E-06
   2     10    11.539    75.754    0.11E-03    0.14E-03    0.22E-06
   0     11    11.539    58.752    0.52E-04    0.18E-04    0.33E-06
   0     11    11.539    30.679    0.44E-04    0.16E-04    0.30E-06
   1     10    11.539    17.977    0.53E-04    0.29E-04    0.13E-06
   1     10    11.539    13.559    0.44E-04    0.25E-04    0.11E-06
 Optimization of the real space projectors (new method)

[...]

   l    n(q)    QCUT    max X(q) W(low)/X(q) W(high)/X(q)  e(spline)
   0      8    11.635    20.381    0.10E-03    0.33E-03    0.24E-06
   0      8    11.635    15.268    0.11E-03    0.35E-03    0.26E-06
   1      7    11.635     5.964    0.24E-03    0.31E-03    0.30E-06
   1      7    11.635     5.382    0.22E-03    0.25E-03    0.26E-06
 Optimization of the real space projectors (new method)

 maximal supplied QI-value         = 34.20
 optimisation between [QCUT,QGAM] = [ 11.63, 23.26] = [ 37.87,151.49] Ry
 Optimized for a Real-space Cutoff    1.21 Angstroem

   l    n(q)    QCUT    max X(q) W(low)/X(q) W(high)/X(q)  e(spline)
   0      8    11.629    19.460    0.17E-03    0.34E-03    0.21E-06
   0      8    11.629    12.209    0.16E-03    0.33E-03    0.21E-06
   1      8    11.629     4.655    0.18E-03    0.16E-03    0.26E-06
  PAW_PBE Fe 06Sep2000                  :
  PAW_PBE Ni 02Aug2007                  :
  PAW_PBE O 08Apr2002                   :
  PAW_PBE H 15Jun2001                   :

 POSCAR: POSCAR
  positions in direct lattice
  velocities in cartesian coordinates
 exchange correlation table for  LEXCH =        8
   RHO(1)=    0.500       N(1)  =     2000
   RHO(2)=  100.500       N(2)  =     4000

 VTST: version 3.2, (02/03/18)

 CHAIN: initializing optimizer

 OPT: Using VASP Dynamics algorithm
 CHAIN: Read ICHAIN            0

 POSCAR: POSCAR
  positions in direct lattice
  velocities in cartesian coordinates

 ion  position               nearest neighbor table
   1  0.002  0.999  0.097-   9 2.45  29 2.50  49 2.51  64 2.51  44 2.53   7 2.53  51 2.54  38 2.55
                             5 2.60
   2  0.996  0.995  0.380-  11 2.46   6 2.48  57 2.48  48 2.49  39 2.50   8 2.50  30 2.52  52 2.54
                            50 2.58
   3  0.499  0.996  0.096-   5 2.47  62 2.50  34 2.52  31 2.52  49 2.53  45 2.55  55 2.55  12 2.56
                            53 2.58
   4  0.500  0.991  0.378-  15 2.39  63 2.43  13 2.44  35 2.50  32 2.51   6 2.52  50 2.55  54 2.57
                            56 2.58
   5  0.743  0.996  0.094-   3 2.47  34 2.47  62 2.52  38 2.53  55 2.54  64 2.58  14 2.58  51 2.59
                             1 2.60
   6  0.753  0.998  0.386-  68 1.82  39 2.47   2 2.48  56 2.52   4 2.52  35 2.54  47 2.54  15 2.55
                            52 2.57  57 2.58
   7  0.249  0.253  0.097-  22 2.43   9 2.44  51 2.49  18 2.52  20 2.53   1 2.53  53 2.54  10 2.55
                            49 2.58
   8  0.245  0.241  0.382-  66 1.79  11 2.46  52 2.46  19 2.50   2 2.50  59 2.51  26 2.52  54 2.53
                            50 2.55  21 2.56
   9  0.089  0.161  0.191-  10 2.41   7 2.44   1 2.45  44 2.47  11 2.49  57 2.52  51 2.52  59 2.53
                            64 2.54  22 2.55  58 2.62  14 2.68
  10  0.330  0.166  0.195-  26 2.41   9 2.41  11 2.44  22 2.48  45 2.48  44 2.49  13 2.50   7 2.55
                            12 2.57  49 2.58  53 2.59  25 2.59
  11  0.165  0.078  0.287-  10 2.44  44 2.45   8 2.46   2 2.46   9 2.49  13 2.49  48 2.51  57 2.52
                            46 2.53  26 2.54  59 2.56  50 2.58
  12  0.583  0.166  0.194-  14 2.45  15 2.49  27 2.50  13 2.52  62 2.52  45 2.54  28 2.54  55 2.55
                             3 2.56  10 2.57  53 2.58  25 2.58
  13  0.413  0.081  0.290-   4 2.44  11 2.49  10 2.50  45 2.51  50 2.51  26 2.52  12 2.52  54 2.53
                            46 2.54  15 2.57  63 2.57  28 2.58
  14  0.827  0.167  0.193-  60 2.44  12 2.45  15 2.47  57 2.50  62 2.51  55 2.51  27 2.53  58 2.56
                            51 2.56   5 2.58  64 2.59   9 2.68
  15  0.666  0.081  0.289-   4 2.39  14 2.47  12 2.49  56 2.51  62 2.51  60 2.52  47 2.52  57 2.54
                             6 2.55  28 2.55  63 2.56  13 2.57
  16  0.003  0.511  0.095-  31 2.44  29 2.45  23 2.48  33 2.51  58 2.57  18 2.58  27 2.59  55 2.60
                            51 2.63
  17  0.004  0.502  0.375-  37 2.38  60 2.42  43 2.49  32 2.49  30 2.52  19 2.53  52 2.55  56 2.56
                            24 2.56
  18  0.256  0.506  0.097-  36 2.40  31 2.45  34 2.47  22 2.47  20 2.48   7 2.52  58 2.53  51 2.58
                            16 2.58
  19  0.247  0.489  0.385-  67 1.86  52 2.41  59 2.50   8 2.50  21 2.53  17 2.53  61 2.57  37 2.59
                            35 2.59  32 2.60
  20  0.500  0.503  0.098-  22 2.41  40 2.43  34 2.48  18 2.48  38 2.50  25 2.53   7 2.53  53 2.54
                            23 2.58
  21  0.498  0.494  0.375-  26 2.38  61 2.42  42 2.43  19 2.53  35 2.53  54 2.55  24 2.55   8 2.56
                            39 2.57
  22  0.339  0.416  0.189-  20 2.41   7 2.43  40 2.46  18 2.47  25 2.48  26 2.48  10 2.48  61 2.51
                            36 2.53   9 2.55  59 2.56  58 2.60
  23  0.757  0.508  0.096-  29 2.40  41 2.46  16 2.48  27 2.48  38 2.48  25 2.56  55 2.57  20 2.58
                            53 2.60
  24  0.749  0.494  0.390-  65 1.88  69 1.94  28 2.51  56 2.52  21 2.55  54 2.56  17 2.56  30 2.59
                            39 2.61  42 2.63  43 2.75
  25  0.586  0.422  0.194-  42 2.42  40 2.45  41 2.46  27 2.46  26 2.47  22 2.48  20 2.53  28 2.55
                            23 2.56  53 2.58  12 2.58  10 2.59
  26  0.413  0.331  0.286-  21 2.38  10 2.41  25 2.47  22 2.48  59 2.50   8 2.52  13 2.52  61 2.52
                            11 2.54  28 2.57  42 2.59  54 2.66
  27  0.827  0.417  0.192-  43 2.41  41 2.45  25 2.46  23 2.48  60 2.50  12 2.50  55 2.51  28 2.53
                            14 2.53  58 2.59  16 2.59  33 2.60
  28  0.669  0.335  0.292-  56 2.49  60 2.49  42 2.50  24 2.51  27 2.53  12 2.54  43 2.54  15 2.55
                            25 2.55  26 2.57  13 2.58  54 2.58
  29  0.992  0.747  0.096-  23 2.40  16 2.45  38 2.48  41 2.50   1 2.50  33 2.54  44 2.56  49 2.57
                            31 2.63
  30  0.003  0.750  0.384-  65 1.85  46 2.44  50 2.46  32 2.50   2 2.52  17 2.52  48 2.55  24 2.59
                            39 2.59  43 2.61
  31  0.251  0.746  0.097-  16 2.44  36 2.44  18 2.45  33 2.49  34 2.52   3 2.52  45 2.55  49 2.56
                            29 2.63
  32  0.249  0.747  0.387-  67 1.87  50 2.47  17 2.49  30 2.50   4 2.51  46 2.53  35 2.57  63 2.59
                            19 2.60  37 2.61
  33  0.086  0.671  0.192-  43 2.40  45 2.48  44 2.48  46 2.49  31 2.49  37 2.49  16 2.51  36 2.52
                            41 2.52  29 2.54  58 2.55  27 2.60
  34  0.502  0.749  0.098-  18 2.47   5 2.47  40 2.48  36 2.48  20 2.48  62 2.49  38 2.49  31 2.52
                             3 2.52
  35  0.503  0.746  0.385-  67 1.87  39 2.45  47 2.49   4 2.50  21 2.53   6 2.54  61 2.55  32 2.57
                            63 2.58  19 2.59
  36  0.330  0.661  0.190-  18 2.40  31 2.44  34 2.48  37 2.48  58 2.49  61 2.49  63 2.50  33 2.52
                            22 2.53  40 2.53  62 2.56  45 2.62
  37  0.168  0.581  0.286-  17 2.38  58 2.45  36 2.48  63 2.49  61 2.49  33 2.49  59 2.51  46 2.51
                            60 2.55  43 2.55  19 2.59  32 2.61
  38  0.748  0.749  0.094-  29 2.48  23 2.48  34 2.49  20 2.50   5 2.53  40 2.54  64 2.55   1 2.55
                            41 2.58
  39  0.747  0.751  0.387-  65 1.84  35 2.45   6 2.47   2 2.50  47 2.52  21 2.57  42 2.58  30 2.59
                            24 2.61  48 2.61
  40  0.580  0.661  0.192-  20 2.43  25 2.45  22 2.46  61 2.47  34 2.48  42 2.52  36 2.53  38 2.54
                            41 2.54  47 2.54  62 2.56  64 2.57
  41  0.832  0.662  0.193-  43 2.35  42 2.43  48 2.45  27 2.45  25 2.46  23 2.46  29 2.50  33 2.52
                            40 2.54  64 2.54  44 2.57  38 2.58
  42  0.673  0.584  0.287-  25 2.42  21 2.43  41 2.43  43 2.47  48 2.47  28 2.50  40 2.52  47 2.54
                            39 2.58  26 2.59  61 2.60  24 2.63
  43  0.919  0.587  0.281-  41 2.35  33 2.40  27 2.41  46 2.46  42 2.47  48 2.47  17 2.49  28 2.54
                            37 2.55  60 2.56  30 2.61  24 2.75
  44  0.086  0.916  0.194-  45 2.43  11 2.45  48 2.45   9 2.47  33 2.48  10 2.49  46 2.52   1 2.53
                            49 2.53  64 2.54  29 2.56  41 2.57
  45  0.327  0.919  0.193-  44 2.43  33 2.48  10 2.48  49 2.49  13 2.51  46 2.51  63 2.52  12 2.54
                            31 2.55   3 2.55  62 2.59  36 2.62
  46  0.164  0.827  0.290-  30 2.44  43 2.46  33 2.49  50 2.51  45 2.51  37 2.51  44 2.52  63 2.52
                            48 2.52  32 2.53  11 2.53  13 2.54
  47  0.665  0.831  0.289-  35 2.49  39 2.52  62 2.52  15 2.52  64 2.52  63 2.53  61 2.53  42 2.54
                            48 2.54   6 2.54  40 2.54  57 2.56
  48  0.916  0.830  0.285-  44 2.45  41 2.45  64 2.46  42 2.47  43 2.47   2 2.49  11 2.51  46 2.52
                            47 2.54  30 2.55  57 2.56  39 2.61
  49  0.249  0.998  0.096-  45 2.49   1 2.51  44 2.53   3 2.53  53 2.55  31 2.56  29 2.57  10 2.58
                             7 2.58
  50  0.248  0.991  0.386-  66 1.87  30 2.46  32 2.47  46 2.51  13 2.51  54 2.52   8 2.55   4 2.55
                             2 2.58  11 2.58
  51  0.001  0.250  0.097-   7 2.49  58 2.51   9 2.52   1 2.54  55 2.55  14 2.56  18 2.58   5 2.59
                            16 2.63
  52  0.007  0.251  0.381-  68 1.89  19 2.41  59 2.46   8 2.46  57 2.50  56 2.54   2 2.54  60 2.54
                            17 2.55   6 2.57
  53  0.499  0.252  0.095-  55 2.53   7 2.54  20 2.54  49 2.55   3 2.58  25 2.58  12 2.58  10 2.59
[...]
   0.128E+02 -.581E+02 -.179E+04   -.131E+02 0.587E+02 0.179E+04   0.258E+00 -.557E+00 0.341E+01   0.146E-03 -.166E-03 0.153E-02
   -.347E+02 0.680E+01 0.896E+03   0.351E+02 -.735E+01 -.895E+03   -.360E+00 0.203E+00 -.378E+00   -.863E-04 0.147E-03 0.350E-02
   0.224E+02 -.136E+02 0.212E+04   -.224E+02 0.140E+02 -.211E+04   -.423E+00 -.114E+01 -.229E+01   0.957E-04 -.904E-03 0.105E-02
   0.348E+02 -.114E+03 -.172E+04   -.350E+02 0.114E+03 0.172E+04   0.295E+00 -.259E+00 0.201E+01   0.151E-03 -.286E-03 0.123E-02
   -.101E+02 0.136E+02 0.804E+03   0.967E+01 -.139E+02 -.804E+03   0.114E+00 -.221E+00 -.500E+00   0.136E-03 -.337E-03 0.363E-02
   -.512E+02 0.944E+00 -.441E+03   0.514E+02 -.107E+01 0.441E+03   -.185E+00 0.143E+00 -.135E+00   0.591E-04 -.204E-03 0.406E-02
   0.366E+02 -.271E+02 0.855E+03   -.364E+02 0.272E+02 -.855E+03   0.344E+00 0.947E-01 0.741E-01   0.372E-03 -.456E-03 0.348E-02
   0.631E+02 -.285E+02 -.470E+03   -.633E+02 0.281E+02 0.471E+03   0.175E+00 0.454E+00 -.275E+00   0.145E-03 -.204E-03 0.384E-02
   -.599E+01 -.593E+01 0.212E+04   0.573E+01 0.565E+01 -.212E+04   0.580E+00 0.673E+00 -.158E+01   0.851E-03 -.246E-03 0.108E-02
   -.663E+02 -.365E+02 -.179E+04   0.683E+02 0.373E+02 0.179E+04   -.204E+01 -.853E+00 0.193E+01   0.188E-03 -.471E-03 0.166E-02
   0.980E+01 -.747E+01 0.212E+04   -.951E+01 0.729E+01 -.212E+04   -.484E+00 0.584E+00 -.215E+01   0.222E-05 -.739E-04 0.150E-02
   0.803E+02 -.247E+02 -.188E+04   -.822E+02 0.253E+02 0.188E+04   0.193E+01 -.561E+00 0.239E+01   -.540E-04 -.377E-03 0.134E-02
   0.203E+02 -.265E+02 0.851E+03   -.212E+02 0.268E+02 -.850E+03   0.705E-01 -.472E+00 -.278E+00   0.691E-03 -.284E-03 0.335E-02
   -.236E-02 0.956E+01 0.214E+04   0.668E-01 -.937E+01 -.214E+04   -.278E-01 0.397E-01 -.168E+01   -.413E-03 -.128E-03 0.131E-02
   -.990E+02 -.390E+02 -.187E+04   0.101E+03 0.403E+02 0.186E+04   -.195E+01 -.131E+01 0.192E+01   -.120E-03 -.199E-03 0.133E-02
   0.118E+02 -.271E+02 0.892E+03   -.117E+02 0.275E+02 -.892E+03   -.267E-01 -.136E+00 0.262E+00   -.411E-03 0.158E-03 0.336E-02
   0.345E+02 -.680E+02 -.492E+03   -.342E+02 0.682E+02 0.492E+03   -.283E+00 -.220E+00 0.917E-01   -.959E-04 -.162E-03 0.352E-02
   -.532E+01 0.832E+01 0.215E+04   0.540E+01 -.820E+01 -.215E+04   0.391E-01 0.117E+00 -.203E+01   -.472E-03 -.163E-03 0.110E-02
   0.918E+02 -.396E+02 -.184E+04   -.939E+02 0.408E+02 0.183E+04   0.212E+01 -.122E+01 0.260E+01   -.359E-04 -.392E-03 0.129E-02
   -.365E+02 0.502E+01 0.852E+03   0.367E+02 -.435E+01 -.852E+03   0.150E+00 -.877E-01 0.532E-01   -.242E-03 0.998E-04 0.380E-02
   0.257E+01 -.697E+01 0.838E+03   -.252E+01 0.737E+01 -.839E+03   0.123E+00 -.210E+00 0.174E+00   -.121E-04 -.451E-03 0.383E-02
   -.108E+02 -.155E+02 -.498E+03   0.106E+02 0.157E+02 0.499E+03   0.112E+00 -.186E+00 -.242E+00   -.218E-03 -.350E-03 0.392E-02
   0.272E+02 -.386E+02 -.433E+03   -.274E+02 0.388E+02 0.432E+03   0.139E+00 -.186E+00 0.538E+00   0.183E-03 -.461E-03 0.388E-02
   -.119E+02 0.322E+02 0.812E+03   0.121E+02 -.330E+02 -.812E+03   -.259E+00 0.179E+00 -.352E+00   0.636E-03 0.149E-03 0.374E-02
   0.805E+01 -.324E+00 0.823E+03   -.743E+01 0.312E+00 -.823E+03   0.163E-01 0.307E-02 -.141E+00   0.257E-03 -.102E-03 0.345E-02
   0.201E+02 0.832E+01 -.515E+03   -.199E+02 -.785E+01 0.516E+03   -.187E+00 -.457E+00 -.561E+00   0.380E-03 0.415E-04 0.361E-02
   -.348E+02 0.360E+02 -.550E+03   0.348E+02 -.361E+02 0.551E+03   -.198E-01 0.610E-01 -.922E+00   -.173E-03 0.223E-03 0.352E-02
   -.134E+02 0.395E+02 -.498E+03   0.133E+02 -.394E+02 0.498E+03   0.125E+00 -.343E-01 -.250E+00   -.255E-03 0.188E-03 0.391E-02
   0.800E+01 0.294E+02 0.265E+04   -.812E+01 -.297E+02 -.265E+04   0.962E-01 0.450E+00 -.546E+00   0.905E-03 0.447E-03 0.115E-02
   0.231E+02 0.193E+03 -.230E+04   -.228E+02 -.196E+03 0.230E+04   -.323E+00 0.303E+01 0.116E+01   -.125E-03 0.172E-03 0.137E-02
   -.115E+02 0.416E+01 0.267E+04   0.118E+02 -.417E+01 -.267E+04   -.528E+00 0.526E-01 -.865E+00   -.565E-03 0.528E-03 0.159E-02
   -.161E+03 -.622E+02 -.230E+04   0.163E+03 0.635E+02 0.230E+04   -.222E+01 -.135E+01 0.319E+00   -.318E-03 0.986E-04 0.141E-02
   0.132E+02 -.291E+02 0.263E+04   -.133E+02 0.293E+02 -.263E+04   0.897E-01 -.255E+00 -.128E+01   0.151E-03 -.332E-03 0.118E-02
   0.467E+02 -.273E+02 -.218E+04   -.474E+02 0.273E+02 0.218E+04   0.672E+00 -.501E-02 0.271E+01   0.166E-03 0.514E-03 0.138E-02
   0.112E+02 -.164E+02 0.266E+04   -.113E+02 0.165E+02 -.265E+04   0.524E-01 -.545E-01 -.140E+01   -.371E-03 -.125E-04 0.156E-02
   0.782E+01 0.214E+02 -.210E+04   -.749E+01 -.216E+02 0.210E+04   -.329E+00 0.189E+00 0.245E+01   0.322E-03 0.356E-03 0.158E-02
   -.193E+02 0.100E+03 -.579E+03   0.192E+02 -.101E+03 0.578E+03   0.852E-01 0.400E+00 0.665E+00   -.350E-03 0.712E-03 0.470E-02
   0.116E+02 -.365E+02 0.111E+04   -.118E+02 0.362E+02 -.111E+04   0.291E-01 0.136E+00 -.317E+00   -.475E-03 0.306E-03 0.456E-02
   -.794E+02 -.107E+02 -.582E+03   0.794E+02 0.104E+02 0.583E+03   -.108E-01 0.327E+00 -.704E+00   -.370E-03 -.631E-03 0.515E-02
   0.614E+02 -.572E+02 -.532E+03   -.615E+02 0.571E+02 0.532E+03   0.108E+00 0.162E+00 0.470E+00   0.116E-03 -.624E-03 0.487E-02
   -.584E+02 -.227E+02 -.605E+03   0.585E+02 0.230E+02 0.604E+03   -.105E+00 -.316E+00 0.492E+00   0.140E-03 0.540E-04 0.475E-02
   0.218E+02 0.989E+01 0.106E+04   -.217E+02 -.996E+01 -.106E+04   0.103E+00 0.867E-02 -.273E+00   -.145E-03 0.280E-03 0.469E-02
   0.352E+02 -.121E+02 -.608E+03   -.353E+02 0.122E+02 0.608E+03   0.118E+00 -.569E-01 0.486E+00   0.106E-04 0.161E-03 0.429E-02
   -.229E+02 0.496E+02 0.108E+04   0.226E+02 -.497E+02 -.108E+04   0.931E-02 0.221E+00 -.210E-01   -.902E-03 0.492E-03 0.504E-02
   0.763E+01 -.729E+02 -.183E+04   -.698E+01 0.732E+02 0.186E+04   -.656E+00 -.305E+00 -.270E+02   0.300E-03 -.366E-03 -.600E-03
   0.857E+02 0.674E+01 -.191E+04   -.850E+02 -.720E+01 0.194E+04   -.725E+00 0.472E+00 -.284E+02   -.639E-04 0.391E-03 -.634E-03
   -.120E+02 -.976E+00 -.187E+04   0.125E+02 0.540E+00 0.189E+04   -.557E+00 0.419E+00 -.262E+02   -.105E-03 -.679E-05 -.703E-03
   -.833E+02 0.765E+02 -.189E+04   0.844E+02 -.741E+02 0.192E+04   -.111E+01 -.248E+01 -.252E+02   -.456E-04 0.404E-03 -.893E-03
   0.824E+02 -.440E+02 -.172E+04   -.931E+02 0.432E+02 0.172E+04   0.107E+02 0.803E+00 0.414E+01   0.234E-03 0.111E-03 -.889E-03
   -.853E+01 -.329E+02 -.178E+04   -.154E+02 0.528E+02 0.181E+04   0.239E+02 -.199E+02 -.305E+02   0.856E-05 0.323E-04 -.151E-02
   -.721E+02 0.444E+02 -.282E+03   0.786E+02 -.488E+02 0.281E+03   -.657E+01 0.437E+01 0.121E+01   -.320E-04 0.340E-04 -.232E-03
   -.245E+02 0.165E+02 0.126E+03   0.398E-12 0.227E-12 -.210E-11   0.245E+02 -.165E+02 -.126E+03   0.119E-03 0.102E-02 0.162E+00

 POSITION                                       TOTAL-FORCE (eV/Angst)
     -5.03208      8.74992      2.05921        -0.264233      0.157446     -0.069919
      5.04047      8.71599      8.08761         0.026529      0.040706      0.004254
      0.00574      8.72607      2.04466        -0.180468      0.456126      0.044796
      0.05009      8.67892      8.04363         0.052514     -0.019618      0.009222
      2.47665      8.72592      2.00821         0.317901      0.278884      0.179497
      2.56725      8.74158      8.21639         0.013137      0.028805     -0.002933
      1.23891      2.21748      2.05880         0.323701     -0.341240     -0.088315
      1.25845      2.10974      8.12085         0.009043      0.006640      0.014560
      0.08074      1.41419      4.05321        -0.920078      0.476937     -0.046509
      2.49330      1.45451      4.14829         0.401010      0.230208     -0.682483
      1.27100      0.68287      6.11405        -0.005762      0.025544      0.014314
      5.06166      1.44930      4.13498        -0.444756      0.208044     -0.411483
      3.76421      0.71207      6.16846         0.022446      0.008246     -0.008332
      7.51557      1.45812      4.11001         0.557233     -0.274897     -0.547887
      6.32939      0.70776      6.14298        -0.029138      0.016932     -0.028587
     -2.55062      4.47399      2.00995         0.235497     -0.808271      0.295253
     -2.49920      4.39655      7.97883         0.043801     -0.008991     -0.018428
      0.03014      4.42905      2.07020        -0.403147     -0.494917     -0.248989
      0.02367      4.28123      8.18250         0.034450     -0.029464      0.009496
      2.50847      4.40516      2.07435         0.252184     -0.340276     -0.043172
      2.54318      4.32181      7.97820        -0.021978      0.006591     -0.026587
      1.32139      3.64145      4.02771         0.013206     -0.344169      0.438291
      5.08382      4.44890      2.04815        -0.401996     -0.692124     -0.100550
      5.07363      4.32376      8.28859         0.030194      0.001398     -0.000780
      3.79377      3.69800      4.13071        -0.338949     -0.566681     -0.421625
      2.50733      2.89661      6.07700        -0.000238      0.013285     -0.008303
      6.25293      3.64956      4.08305         0.564491      0.191614     -0.032548
      5.07598      2.92989      6.19942        -0.034252      0.008589     -0.020174
      6.25194      6.54167      2.03547         0.307257      0.378208      0.275593
     -3.75769      6.56974      8.16069         0.046302      0.028229     -0.014410
     -1.23133      6.52951      2.06361        -0.185169      0.388651     -0.312745
     -1.25905      6.54219      8.23600        -0.016311      0.046328      0.008319
     -2.52172      5.87475      4.08745        -0.754453     -0.132626      0.285014
      1.28426      6.55944      2.07409         0.033263      0.225680     -0.266096
      1.31359      6.52897      8.17943         0.021296      0.022382     -0.008490
     -0.00626      5.79145      4.04458         0.085644      0.270336      0.389137
     -1.23895      5.08595      6.07511        -0.013138     -0.012912      0.032579
      3.77628      6.55571      2.00000         0.114554      0.241169      0.096350
      3.75970      6.57627      8.22106        -0.001891     -0.006523     -0.012333
      2.52387      5.78801      4.07310         0.400518      0.577257      0.195322
      5.06734      5.79704      4.10517         0.176324      0.177503      0.031968
      3.85643      5.11030      6.09777         0.001372     -0.016918     -0.007117
      6.32467      5.13642      5.98333         0.015589     -0.016661      0.051516
     -3.76296      8.02446      4.11956        -0.081359     -0.573587     -0.140393
     -1.33707      8.05044      4.10308         0.641194     -0.011182      0.094904
     -2.52331      7.24207      6.16333        -0.031570      0.001729      0.025812
      2.52759      7.27485      6.13837         0.034185      0.030515     -0.027707
      5.06818      7.26654      6.06717         0.015370      0.003907     -0.023915
     -2.52690      8.74056      2.03303        -0.021872      0.101412      0.394092
     -2.49634      8.67516      8.21809        -0.018702      0.003647     -0.006219
     -1.24953      2.18697      2.05404        -0.214580      0.042483      0.392346
     -1.20246      2.20210      8.11296         0.004775     -0.003719      0.017423
      3.77687      2.20348      2.02824         0.028268     -0.000561      0.666348
      3.78130      2.11676      8.27385         0.010367      0.006789     -0.011994
      6.31052      2.19548      2.03586        -0.035261      0.041624      0.236036
      6.37287      2.16931      8.17826         0.005495     -0.016259      0.019048
      8.86532      0.73828      6.08407         0.006060     -0.015274     -0.014521
     -1.27338      3.65234      4.08853        -0.137347     -0.163263     -0.362893
      0.01048      2.91021      6.09653         0.005390     -0.002267     -0.036283
      7.56106      2.90045      6.07430        -0.043771      0.000841     -0.024511
      1.25358      5.08647      6.07350         0.014891     -0.015593      0.002954
      1.25660      8.01495      4.09194         0.130238     -0.057345      0.067338
     -0.00408      7.24430      6.07931        -0.000258      0.025814      0.004407
      3.80919      8.00883      4.09175        -0.294220      0.108011     -0.168804
      5.07228      5.89627      9.30980        -0.004836      0.034058      0.023048
      2.35643      1.40578      9.34062        -0.008974      0.015611     -0.019192
      0.05173      5.75707      9.31753        -0.045352     -0.016808     -0.000046
      7.73651      1.40004      9.35221        -0.005466     -0.001943     -0.030789
      5.18297      2.85673      9.55000        -0.018212      0.012012     -0.017401
      5.67740      2.78931     11.00858        -0.008605      0.024033     -0.026465
      6.48946      2.24665     10.84195        -0.009347      0.019871      0.020696
    total drift:                                0.002782     -0.009150     -0.004901

  FREE ENERGIE OF THE ION-ELECTRON SYSTEM (eV)
  free  energy   TOTEN  =      -515.50423793 eV

  energy  without entropy=     -515.50423793  energy(sigma->0) =     -515.50423793

 stress matrix after NEB project (eV)
    -31.20727     -0.63187      0.48884
     -0.63187    -30.66501      1.83155
      0.48884      1.83155     -4.14405
  FORCES: max atom, RMS     0.056812    0.027081
  FORCE total and by dimension    0.228191    0.052514
  Stress total and by dimension   44.038561   31.207267
 writing wavefunctions

 total charge

[...]

 magnetization (x)

# of ion       s       p       d       tot
    1        0.003  -0.008   2.630   2.624
    2        0.003  -0.006   2.812   2.809
    3        0.000  -0.009   2.778   2.770
    4        0.002  -0.002   2.859   2.859
    5        0.002  -0.010   2.766   2.758
    6       -0.002  -0.012   2.404   2.390
    7        0.007  -0.003   2.446   2.450
    8        0.002  -0.011   2.153   2.144
    9        0.007  -0.013   2.300   2.294
   10       -0.029  -0.043  -1.884  -1.956
   11       -0.005  -0.021   2.093   2.067
   12       -0.002  -0.024   2.354   2.328
   13       -0.006  -0.031   2.465   2.427
   14        0.002  -0.017   2.677   2.662
   15       -0.009  -0.029   2.488   2.451
   16        0.006  -0.010   2.688   2.683
   17        0.005  -0.007   2.820   2.818
   18       -0.002  -0.021   2.497   2.474
   19        0.006  -0.003   2.550   2.554
   20       -0.002  -0.009   2.295   2.284
   21       -0.001  -0.012   2.832   2.820
   22       -0.032  -0.055  -1.836  -1.923
   23        0.001  -0.013   2.557   2.545
   24        0.003   0.009   2.326   2.337
   25       -0.033  -0.053  -1.983  -2.069
   26        0.006  -0.012   2.209   2.204
   27        0.006  -0.012   2.180   2.175
   28        0.003  -0.015   2.355   2.343
   29        0.006  -0.014   2.540   2.532
   30        0.007  -0.004   2.325   2.328
   31       -0.005  -0.019   2.519   2.495
   32        0.005  -0.006   2.520   2.519
   33       -0.030  -0.050  -1.545  -1.625
   34       -0.010  -0.038   2.574   2.526
   35        0.003  -0.011   2.470   2.463
   36       -0.002  -0.023   2.399   2.375
   37        0.001  -0.017   2.445   2.429
   38       -0.006  -0.027   2.604   2.571
   39       -0.002  -0.020   2.279   2.257
   40        0.001  -0.021   2.228   2.208
   41       -0.011  -0.031  -0.072  -0.113
   42       -0.005  -0.023   1.978   1.951
   43       -0.037  -0.065  -1.889  -1.990
   44       -0.029  -0.051  -1.723  -1.803
   45        0.006  -0.017   2.331   2.320
   46        0.002  -0.006   1.976   1.972
   47        0.001  -0.017   2.530   2.514
   48       -0.002  -0.024   2.055   2.029
   49       -0.026  -0.029   0.487   0.432
   50       -0.023  -0.024   0.528   0.482
   51       -0.032  -0.034   0.703   0.637
   52       -0.018  -0.020   0.593   0.556
   53       -0.021  -0.019   0.371   0.331
   54       -0.014  -0.018   0.530   0.498
   55       -0.028  -0.030   0.698   0.639
   56       -0.018  -0.023   0.558   0.517
   57       -0.026  -0.053   0.722   0.643
   58       -0.018  -0.041   0.554   0.495
   59       -0.013  -0.027   0.490   0.450
   60       -0.019  -0.034   0.602   0.549
   61       -0.024  -0.059   0.659   0.576
   62       -0.026  -0.072   0.721   0.623
   63       -0.032  -0.063   0.777   0.683
   64       -0.019  -0.051   0.614   0.544
   65        0.003   0.076   0.000   0.079
   66        0.002   0.053   0.000   0.055
   67        0.004   0.107   0.000   0.111
   68        0.003   0.090   0.000   0.093
   69        0.013   0.094   0.000   0.107
   70        0.001   0.022   0.000   0.022
   71        0.001   0.000   0.000   0.001
tot         -0.493  -1.089  98.987  97.405

 BZINTS: Fermi energy: -0.266515;581.000000 electrons
         Band energy:***********;  BLOECHL correction: -0.007126