 vasp.5.4.4.18Apr17-6-g9f103f2a35 (build Sep 06 2021 19:49:22) complex

 executed on             LinuxIFC date 2022.01.03  17:10:21

 INCAR:
 POTCAR:    PAW_PBE Ni 02Aug2007
 POTCAR:    PAW_PBE Fe 06Sep2000

 POTCAR:    PAW_PBE Ni 02Aug2007
   VRHFIN =Ni:

   TITEL  = PAW_PBE Ni 02Aug2007
   POMASS =   58.690; ZVAL   =   10.000    mass and valenz
   ENMAX  =  269.532; ENMIN  =  202.149 eV

 POTCAR:    PAW_PBE Fe 06Sep2000
   VRHFIN =Fe:  d7 s1

   TITEL  = PAW_PBE Fe 06Sep2000
   POMASS =   55.847; ZVAL   =    8.000    mass and valenz
   ENMAX  =  267.882; ENMIN  =  200.911 eV

 Optimization of the real space projectors (new method)

 maximal supplied QI-value         = 16.25
 optimisation between [QCUT,QGAM] = [ 11.54, 23.24] = [ 37.28,151.24] Ry
 Optimized for a Real-space Cutoff    1.45 Angstroem

   l    n(q)    QCUT    max X(q) W(low)/X(q) W(high)/X(q)  e(spline)
   2      9    11.539    60.317    0.19E-03    0.47E-04    0.16E-06
   2      9    11.539    55.921    0.19E-03    0.48E-04    0.16E-06
   0     10    11.539    51.690    0.80E-04    0.50E-04    0.24E-06
   0     10    11.539    30.015    0.73E-04    0.45E-04    0.22E-06
   1     10    11.539    18.849    0.87E-04    0.16E-03    0.71E-07
   1     10    11.539    14.624    0.73E-04    0.13E-03    0.64E-07
 Optimization of the real space projectors (new method)

 maximal supplied QI-value         = 16.25
 optimisation between [QCUT,QGAM] = [ 11.54, 23.24] = [ 37.28,151.24] Ry
 Optimized for a Real-space Cutoff    1.53 Angstroem

   l    n(q)    QCUT    max X(q) W(low)/X(q) W(high)/X(q)  e(spline)
   2     10    11.539    80.901    0.11E-03    0.14E-03    0.21E-06
   2     10    11.539    75.754    0.11E-03    0.14E-03    0.22E-06
   0     11    11.539    58.752    0.52E-04    0.18E-04    0.33E-06
   0     11    11.539    30.679    0.44E-04    0.16E-04    0.30E-06
   1     10    11.539    17.977    0.53E-04    0.29E-04    0.13E-06
   1     10    11.539    13.559    0.44E-04    0.25E-04    0.11E-06
  PAW_PBE Ni 02Aug2007                  :
  PAW_PBE Fe 06Sep2000                  :

 POSCAR: POSCAR
  positions in direct lattice
  velocities in cartesian coordinates
 exchange correlation table for  LEXCH =        8
   RHO(1)=    0.500       N(1)  =     2000
   RHO(2)=  100.500       N(2)  =     4000

 ion  position               nearest neighbor table
   1  0.999  0.001  0.191-  62 2.47  59 2.47  35 2.49  23 2.50  32 2.50   5 2.52  40 2.52  37 2.52
                             2 2.53   4 2.53  21 2.54  34 2.54
   2  0.248  0.999  0.192-   6 2.45  50 2.47  60 2.47  36 2.48  37 2.50  59 2.51   3 2.51  28 2.52
                             5 2.52  21 2.53   1 2.53   8 2.56
   3  0.499  0.002  0.192-  60 2.41  61 2.44  39 2.45  36 2.49  30 2.50  34 2.51   2 2.51   8 2.52
                            11 2.52   7 2.53  50 2.54  51 2.54
   4  0.998  0.251  0.192-  10 2.45  43 2.48  35 2.49  42 2.49  19 2.50  34 2.50  13 2.50   7 2.53
                             1 2.53  40 2.53   5 2.55  46 2.55
   5  0.249  0.249  0.191-   6 2.45  36 2.48  45 2.50  37 2.50  46 2.50  35 2.51   1 2.52  42 2.52
                             2 2.52  16 2.54   4 2.55  44 2.55
   6  0.328  0.165  0.285-  38 2.42   5 2.45   2 2.45  17 2.45  36 2.45   9 2.47  39 2.48  59 2.50
                            35 2.51  15 2.55  60 2.55  45 2.60
   7  0.749  0.253  0.193-  10 2.44  18 2.44  39 2.47  14 2.49  48 2.49  13 2.51  34 2.51   4 2.53
                             3 2.53  11 2.54  36 2.55  19 2.55
   8  0.418  0.084  0.094-  37 2.49  36 2.51  16 2.51   3 2.52  11 2.52  30 2.53  28 2.53  48 2.56
                             2 2.56
   9  0.418  0.085  0.378-  39 2.40  60 2.47   6 2.47  49 2.48  29 2.51  17 2.53  12 2.53  31 2.57
                            38 2.65
  10  0.832  0.168  0.285-  34 2.42  41 2.43  12 2.43   7 2.44   4 2.45  20 2.45  62 2.51  35 2.52
                            18 2.53  61 2.57  39 2.59  43 2.60
  11  0.668  0.085  0.096-  34 2.51  40 2.51  48 2.51   8 2.52   3 2.52  19 2.53  30 2.54  63 2.54
                             7 2.54
  12  0.667  0.081  0.377-  10 2.43  39 2.50  61 2.51  64 2.52  31 2.52   9 2.53  49 2.53  20 2.56
                            41 2.57
  13  0.999  0.499  0.193-  18 2.44  22 2.46  43 2.49  53 2.50   4 2.50  42 2.51   7 2.51  19 2.52
                            50 2.52  21 2.53  14 2.53  26 2.55
  14  0.748  0.499  0.192-  15 2.43  18 2.46  44 2.48   7 2.49  48 2.49  57 2.52  26 2.52  21 2.52
                            23 2.53  13 2.53  56 2.55  36 2.57
  15  0.579  0.417  0.283-  44 2.40  58 2.40  49 2.41  14 2.43  36 2.46  17 2.46  55 2.51  39 2.51
                            45 2.54   6 2.55  18 2.56  56 2.57
  16  0.420  0.333  0.094-  36 2.51   8 2.51  37 2.52  57 2.52  44 2.52  46 2.53  24 2.54  48 2.54
                             5 2.54
  17  0.415  0.334  0.377-   6 2.45  15 2.46  47 2.50  45 2.50  25 2.50   9 2.53  49 2.53  58 2.59
                            38 2.59
  18  0.834  0.419  0.286-  49 2.36  27 2.41  13 2.44   7 2.44  14 2.46  20 2.48  10 2.53  22 2.53
                            15 2.56  39 2.58  56 2.60  43 2.63
  19  0.919  0.335  0.096-  48 2.49   4 2.50  40 2.51  53 2.51  13 2.52  11 2.53  26 2.54  46 2.54
                             7 2.55
  20  0.921  0.334  0.378-  10 2.45  54 2.47  18 2.48  43 2.49  47 2.50  27 2.53  12 2.56  41 2.56
                            49 2.59
  21  0.998  0.749  0.193-  22 2.43  50 2.48  23 2.48  56 2.49  59 2.50  32 2.50  26 2.52  14 2.52
                             2 2.53  13 2.53   1 2.54  28 2.55
  22  0.084  0.670  0.285-  50 2.40  29 2.43  54 2.43  21 2.43  27 2.46  13 2.46  52 2.50  18 2.53
                            60 2.54  59 2.56  56 2.58  43 2.58
  23  0.753  0.752  0.192-  56 2.44  55 2.46  62 2.47  21 2.48  63 2.49   1 2.50  32 2.51  57 2.52
                            14 2.53  44 2.54  51 2.57  34 2.58
  24  0.417  0.584  0.096-  46 2.49  44 2.50  51 2.51  57 2.52  30 2.52  63 2.53  16 2.54  42 2.56
                            53 2.57
  25  0.417  0.582  0.376-  45 2.40  55 2.44  54 2.49  52 2.49  17 2.50  31 2.50  47 2.52  58 2.53
                            64 2.55
  26  0.916  0.585  0.095-  48 2.48  32 2.48  57 2.50  53 2.51  21 2.52  14 2.52  28 2.53  19 2.54
                            13 2.55
  27  0.915  0.581  0.377-  18 2.41  22 2.46  56 2.47  58 2.51  20 2.53  49 2.54  33 2.57  54 2.58
                            29 2.58
  28  0.167  0.835  0.095-  32 2.48  37 2.49  53 2.50   2 2.52  50 2.53   8 2.53  26 2.53  30 2.54
                            21 2.55
  29  0.170  0.837  0.376-  22 2.43  59 2.45  60 2.45   9 2.51  31 2.54  38 2.56  33 2.57  27 2.58
                            54 2.63
  30  0.417  0.833  0.097-  51 2.49   3 2.50  53 2.52  24 2.52   8 2.53  11 2.54  28 2.54  63 2.54
                            50 2.55
  31  0.418  0.831  0.377-  60 2.44  52 2.45  61 2.46  25 2.50  12 2.52  64 2.53  29 2.54  54 2.56
                             9 2.57
  32  0.920  0.833  0.095-  28 2.48  26 2.48   1 2.50  21 2.50  23 2.51  57 2.53  37 2.54  63 2.54
                            40 2.57
  33  0.915  0.836  0.379-  56 2.40  59 2.42  41 2.45  38 2.45  62 2.47  58 2.48  64 2.48  29 2.57
                            27 2.57
  34  0.749  0.005  0.193-  61 2.41  10 2.42  62 2.45   4 2.50  11 2.51   7 2.51   3 2.51  63 2.54
                             1 2.54  51 2.55  40 2.57  23 2.58
  35  0.079  0.164  0.287-  41 2.30  38 2.31  47 2.33  59 2.45  62 2.47   4 2.49   1 2.49   6 2.51
                            43 2.51   5 2.51  10 2.52  45 2.59
  36  0.493  0.245  0.192-  39 2.43   6 2.45  15 2.46   5 2.48   2 2.48   3 2.49   8 2.51  16 2.51
                            44 2.52   7 2.55  14 2.57  48 2.57
  37  0.171  0.083  0.095-  28 2.49   8 2.49   2 2.50   5 2.50  16 2.52   1 2.52  32 2.54  46 2.57
                            40 2.58
  38  0.154  0.082  0.374-  35 2.31  59 2.33  41 2.35   6 2.42  33 2.45  47 2.47  29 2.56  17 2.59
                             9 2.65
  39  0.575  0.167  0.285-  49 2.34   9 2.40  36 2.43   3 2.45  60 2.45   7 2.47   6 2.48  12 2.50
                            15 2.51  18 2.58  10 2.59  61 2.61
  40  0.917  0.086  0.094-  19 2.51  11 2.51   1 2.52  63 2.53   4 2.53  46 2.55  34 2.57  32 2.57
                            37 2.58
  41  0.921  0.080  0.373-  35 2.30  62 2.34  38 2.35  10 2.43  33 2.45  64 2.51  47 2.53  20 2.56
                            12 2.57
  42  0.246  0.497  0.194-  43 2.36  45 2.36  52 2.42   4 2.49  13 2.51  46 2.51   5 2.52  53 2.54
                            51 2.55  24 2.56  44 2.58  50 2.59
  43  0.095  0.420  0.285-  54 2.30  47 2.30  42 2.36  45 2.37  52 2.45   4 2.48  20 2.49  13 2.49
                            35 2.51  22 2.58  10 2.60  18 2.63
  44  0.503  0.500  0.191-  15 2.40  55 2.41  14 2.48  45 2.48  57 2.49  24 2.50  36 2.52  16 2.52
                            23 2.54   5 2.55  51 2.55  42 2.58
  45  0.331  0.424  0.284-  47 2.35  42 2.36  43 2.37  25 2.40  55 2.46  52 2.47  44 2.48   5 2.50
                            17 2.50  15 2.54  35 2.59   6 2.60
  46  0.171  0.337  0.096-  24 2.49   5 2.50  42 2.51  16 2.53  19 2.54   4 2.55  53 2.55  40 2.55
                            37 2.57
  47  0.168  0.333  0.371-  43 2.30  35 2.33  45 2.35  54 2.45  38 2.47  17 2.50  20 2.50  25 2.52
                            41 2.53
  48  0.673  0.336  0.096-  26 2.48  19 2.49  14 2.49   7 2.49  11 2.51  57 2.53  16 2.54   8 2.56
                            36 2.57
  49  0.663  0.330  0.372-  39 2.34  18 2.36  15 2.41   9 2.48  17 2.53  12 2.53  27 2.54  58 2.58
                            20 2.59
  50  0.245  0.753  0.193-  22 2.40  52 2.41  60 2.41   2 2.47  21 2.48  53 2.51  13 2.52  28 2.53
                             3 2.54  30 2.55  51 2.57  42 2.59
  51  0.498  0.750  0.193-  61 2.37  55 2.39  52 2.41  30 2.49  24 2.51  63 2.52   3 2.54  44 2.55
                            34 2.55  42 2.55  23 2.57  50 2.57
  52  0.331  0.669  0.283-  54 2.39  50 2.41  51 2.41  42 2.42  31 2.45  43 2.45  60 2.47  45 2.47
                            61 2.48  25 2.49  22 2.50  55 2.52
  53  0.165  0.586  0.097-  13 2.50  28 2.50  50 2.51  26 2.51  19 2.51  30 2.52  42 2.54  46 2.55
                            24 2.57
  54  0.167  0.575  0.372-  43 2.30  52 2.39  22 2.43  47 2.45  20 2.47  25 2.49  31 2.56  27 2.58
                            29 2.63
  55  0.578  0.665  0.282-  51 2.39  58 2.40  64 2.40  44 2.41  25 2.44  23 2.46  45 2.46  61 2.48
                            56 2.50  15 2.51  52 2.52  62 2.59
  56  0.831  0.675  0.287-  58 2.26  33 2.40  23 2.44  62 2.46  27 2.47  59 2.49  21 2.49  55 2.50
                            14 2.55  15 2.57  22 2.58  18 2.60
  57  0.668  0.584  0.095-  44 2.49  26 2.50  63 2.51  23 2.52  14 2.52  16 2.52  24 2.52  32 2.53
                            48 2.53
  58  0.671  0.590  0.371-  56 2.26  55 2.40  15 2.40  64 2.47  33 2.48  27 2.51  25 2.53  49 2.58
                            17 2.59
  59  0.078  0.920  0.287-  38 2.33  33 2.42  29 2.45  35 2.45  62 2.46   1 2.47  56 2.49   6 2.50
                            21 2.50   2 2.51  22 2.56  60 2.66
  60  0.339  0.918  0.284-   3 2.41  50 2.41  31 2.44  29 2.45  39 2.45  61 2.47   9 2.47   2 2.47
[...]
   0.384E+00 -.349E+02 0.273E+04   -.340E+00 0.352E+02 -.273E+04   0.699E-01 -.261E+00 -.124E+01   -.123E-01 0.335E-01 0.265E-01
   0.147E+02 -.153E+02 -.269E+04   -.146E+02 0.154E+02 0.268E+04   -.949E-01 -.148E+00 0.114E+01   -.993E-02 0.468E-03 -.549E-01
   -.795E+02 0.101E+03 -.948E+03   0.796E+02 -.102E+03 0.948E+03   -.157E+00 0.355E+00 0.512E+00   0.137E-02 -.305E-01 -.955E-01
   -.588E+02 0.432E+02 0.270E+04   0.591E+02 -.434E+02 -.270E+04   -.398E+00 0.566E-01 -.926E+00   0.418E-02 -.123E-01 0.272E-01
   -.465E+02 0.427E+02 -.270E+04   0.465E+02 -.428E+02 0.270E+04   -.134E-01 0.171E+00 0.105E+01   0.922E-02 -.296E-02 -.624E-01
   -.122E+03 -.264E+02 0.873E+03   0.122E+03 0.266E+02 -.873E+03   -.175E+00 -.865E-01 -.141E+00   0.621E-02 -.201E-01 -.272E-02
   0.104E+03 0.114E+00 0.908E+03   -.104E+03 -.180E+00 -.908E+03   0.149E+00 0.598E-01 -.163E+00   -.332E-01 -.273E-01 -.111E-01
   0.856E+02 -.602E+02 -.919E+03   -.859E+02 0.606E+02 0.919E+03   0.264E+00 -.346E+00 0.393E+00   0.878E-02 -.147E-02 -.947E-01
   0.243E+02 -.458E+02 0.270E+04   -.240E+02 0.460E+02 -.270E+04   -.186E+00 -.746E-01 -.800E+00   -.112E-01 -.101E-01 0.177E-01
   0.551E+02 -.253E+02 -.268E+04   -.551E+02 0.254E+02 0.268E+04   -.581E-02 -.110E+00 0.173E+00   0.496E-02 -.203E-01 -.501E-01
   0.505E+00 0.545E+01 -.969E+03   -.382E+00 -.551E+01 0.969E+03   -.899E-01 0.803E-01 0.317E+00   -.136E-01 -.184E-01 -.783E-01
   -.675E+02 0.130E+02 0.274E+04   0.679E+02 -.129E+02 -.274E+04   -.261E+00 0.177E-01 -.521E+00   0.167E-01 -.422E-01 0.149E-01
   -.898E+02 0.110E+02 -.273E+04   0.901E+02 -.108E+02 0.273E+04   -.339E+00 -.148E+00 0.263E+00   -.143E-01 -.776E-02 -.477E-01
   -.670E+00 -.243E+02 0.831E+03   0.711E+00 0.242E+02 -.831E+03   0.498E-01 0.107E+00 -.211E+00   -.210E-01 0.349E-01 0.117E-01
   -.998E+02 -.310E+02 -.929E+03   0.100E+03 0.311E+02 0.928E+03   -.262E+00 -.123E+00 0.258E+00   -.772E-02 0.233E-01 -.693E-01
   0.152E+03 -.128E+02 0.840E+03   -.152E+03 0.127E+02 -.840E+03   0.505E+00 0.159E+00 -.575E+00   -.336E-01 0.229E-01 -.140E-01
   0.115E+02 -.864E+01 0.262E+04   -.115E+02 0.851E+01 -.262E+04   0.149E-01 0.207E+00 -.125E+01   0.159E-01 -.829E-02 0.130E-01
   0.962E+01 -.687E+00 -.265E+04   -.959E+01 0.649E+00 0.265E+04   -.427E-01 0.414E-01 0.113E+01   0.119E-01 0.117E-01 -.537E-01
   0.309E+01 0.268E+02 0.275E+04   -.321E+01 -.269E+02 -.275E+04   0.152E+00 0.200E+00 -.776E+00   -.249E-01 -.115E-01 0.105E-01
   0.216E+02 -.625E+01 -.273E+04   -.219E+02 0.623E+01 0.273E+04   0.252E+00 0.251E-01 0.791E+00   -.101E-01 0.135E-03 -.462E-01
   -.378E+02 0.152E+02 0.273E+04   0.380E+02 -.154E+02 -.273E+04   -.160E+00 0.155E-01 -.123E+01   0.121E-01 0.478E-01 0.138E-01
   0.915E+01 -.185E+02 -.269E+04   -.917E+01 0.187E+02 0.268E+04   0.307E-01 -.219E+00 0.119E+01   -.213E-01 0.198E-01 -.527E-01
   -.571E+02 0.762E+02 0.264E+04   0.572E+02 -.764E+02 -.264E+04   0.308E-02 0.235E+00 -.140E+01   0.331E-01 -.201E-03 0.242E-01
   -.520E+02 0.545E+02 -.267E+04   0.520E+02 -.547E+02 0.267E+04   -.429E-03 0.217E+00 0.156E+01   0.113E-01 0.143E-01 -.646E-01
   0.959E+02 -.478E+02 0.274E+04   -.963E+02 0.480E+02 -.274E+04   0.334E+00 -.209E+00 -.475E+00   -.448E-01 0.440E-01 0.180E-01
   0.891E+02 -.644E+02 -.265E+04   -.895E+02 0.646E+02 0.265E+04   0.325E+00 -.245E+00 0.961E+00   0.218E-03 0.177E-01 -.645E-01
   -.857E+01 0.872E+02 0.671E+03   0.858E+01 -.878E+02 -.671E+03   0.107E-01 0.513E+00 -.261E+00   0.190E-02 -.148E-01 -.117E-01
   0.604E+01 -.113E+02 -.767E+03   -.603E+01 0.112E+02 0.767E+03   -.619E-02 0.107E+00 -.469E+00   0.902E-02 -.228E-01 -.677E-01
   0.107E+02 -.376E+02 0.717E+03   -.107E+02 0.378E+02 -.717E+03   -.979E-01 -.158E+00 -.281E+00   -.520E-02 -.501E-02 -.356E-01
   0.638E+02 -.475E+02 0.219E+04   -.641E+02 0.479E+02 -.219E+04   0.357E+00 -.367E+00 -.233E+01   -.426E-02 0.296E-01 0.185E-01
   0.840E+02 -.237E+02 -.214E+04   -.846E+02 0.241E+02 0.214E+04   0.587E+00 -.373E+00 0.234E+01   -.430E-02 -.129E-01 -.464E-01
   0.142E+02 0.573E+02 -.732E+03   -.142E+02 -.575E+02 0.732E+03   -.319E-01 0.155E+00 0.565E-01   0.505E-02 -.349E-02 -.745E-01
   -.176E+02 0.135E+02 0.219E+04   0.178E+02 -.134E+02 -.218E+04   -.178E+00 -.956E-01 -.280E+01   0.105E-01 -.995E-02 0.160E-01
   -.599E+02 0.261E+02 -.215E+04   0.605E+02 -.259E+02 0.214E+04   -.560E+00 -.167E+00 0.250E+01   0.103E-01 -.128E-01 -.494E-01
   -.599E+02 -.580E+02 0.644E+03   0.598E+02 0.585E+02 -.644E+03   0.928E-01 -.415E+00 -.456E+00   0.224E-01 -.165E-02 -.350E-01
   -.150E+03 -.159E+02 -.772E+03   0.151E+03 0.162E+02 0.772E+03   -.846E+00 -.250E+00 -.365E-01   0.404E-02 -.196E-01 -.602E-01
   0.771E+02 -.506E+02 0.691E+03   -.772E+02 0.507E+02 -.691E+03   0.121E+00 -.993E-01 -.516E+00   -.108E-02 -.128E-02 -.359E-01
   0.784E+02 -.616E+02 -.709E+03   -.789E+02 0.619E+02 0.708E+03   0.486E+00 -.250E+00 0.463E+00   -.155E-03 -.123E-01 -.814E-01
   0.188E+01 -.699E+01 0.216E+04   -.185E+01 0.674E+01 -.216E+04   -.323E-01 0.136E+00 -.280E+01   0.302E-01 -.125E-01 0.820E-02
   0.545E+01 0.185E+02 -.214E+04   -.557E+01 -.190E+02 0.214E+04   0.119E+00 0.548E+00 0.297E+01   -.349E-02 -.241E-01 -.368E-01
   0.436E+02 -.591E+01 0.218E+04   -.438E+02 0.591E+01 -.218E+04   0.138E+00 -.202E+00 -.256E+01   -.353E-01 -.258E-01 0.228E-01
   0.313E+02 -.582E+01 -.223E+04   -.313E+02 0.588E+01 0.222E+04   0.144E-01 -.762E-01 0.310E+01   0.636E-02 0.190E-02 -.248E-01
   -.121E+03 0.447E+02 0.649E+03   0.121E+03 -.450E+02 -.649E+03   -.373E+00 0.303E+00 -.355E+00   0.248E-01 0.173E-01 -.678E-02
   -.767E+01 0.386E+02 0.629E+03   0.773E+01 -.386E+02 -.629E+03   -.541E-01 -.616E-01 -.670E+00   0.173E-01 0.124E-01 -.188E-01
   -.589E+02 0.214E+02 -.718E+03   0.588E+02 -.215E+02 0.717E+03   0.157E+00 0.326E-01 0.745E+00   0.156E-01 0.236E-01 -.862E-01
   -.769E+02 0.205E+02 0.213E+04   0.773E+02 -.206E+02 -.212E+04   -.288E+00 0.195E+00 -.276E+01   0.449E-01 -.691E-02 0.637E-02
   -.618E+02 0.404E+02 -.218E+04   0.622E+02 -.406E+02 0.217E+04   -.349E+00 0.237E+00 0.337E+01   -.115E-01 0.124E-02 -.314E-01
   0.524E+02 -.357E+02 -.733E+03   -.524E+02 0.360E+02 0.733E+03   -.258E-01 -.304E+00 0.825E-01   0.430E-02 0.351E-01 -.777E-01
   0.956E+02 -.728E+02 -.758E+03   -.960E+02 0.731E+02 0.759E+03   0.393E+00 -.365E+00 0.375E-01   -.157E-01 0.169E-01 -.624E-01
   0.572E+02 -.403E+01 0.217E+04   -.574E+02 0.396E+01 -.217E+04   0.216E+00 0.110E+00 -.282E+01   -.391E-01 -.490E-02 0.130E-01
   0.315E+02 -.334E+02 -.218E+04   -.315E+02 0.336E+02 0.218E+04   0.406E-01 -.203E+00 0.311E+01   0.111E-01 0.942E-02 -.366E-01
   0.566E+02 -.402E+02 -.741E+03   -.570E+02 0.404E+02 0.741E+03   0.390E+00 -.200E+00 0.213E+00   -.137E-01 0.210E-01 -.558E-01
   -.536E+02 0.361E+02 -.721E+03   0.540E+02 -.362E+02 0.721E+03   -.450E+00 0.171E+00 0.269E+00   -.226E-02 0.667E-02 -.751E-01
   -.397E+02 0.883E+02 -.720E+03   0.400E+02 -.889E+02 0.720E+03   -.267E+00 0.548E+00 0.441E+00   0.172E-01 -.419E-02 -.817E-01
   0.372E+02 0.134E+02 -.768E+03   -.374E+02 -.133E+02 0.768E+03   0.227E+00 -.343E-01 -.757E-02   -.397E-02 -.986E-04 -.757E-01
   0.396E+01 0.576E+01 0.212E+04   -.392E+01 -.572E+01 -.212E+04   -.233E+00 0.385E-01 -.281E+01   -.109E-02 -.142E-02 0.234E-01
   -.400E+02 0.217E+01 -.215E+04   0.402E+02 -.225E+01 0.214E+04   -.243E+00 0.870E-01 0.353E+01   0.912E-02 0.656E-02 -.591E-01
   0.331E+00 0.506E+00 0.275E+01   -.220E-12 0.216E-12 -.409E-11   -.301E+00 -.514E+00 -.709E+00   -.325E-01 0.547E-02 -.204E+01

 POSITION                                       TOTAL-FORCE (eV/Angst)
     10.08740      0.00562      4.04934        -0.011535      0.019905     -0.161814
     -2.53339      8.73512      4.08189        -0.014020      0.075927     -0.112198
      5.03058      0.01686      4.07660         0.023557     -0.032675     -0.086045
      8.81557      2.19268      4.07950         0.007676     -0.022096     -0.149544
      1.26036      2.17683      4.06343        -0.084077     -0.041320     -0.094088
      2.54706      1.44218      6.11960        -0.006033     -0.007180     -0.005679
      6.28789      2.21111      4.10570         0.031019     -0.036281     -0.266101
      3.80181      0.73423      2.00036         0.101156      0.024014      0.376813
      3.79655      0.72873      8.13755        -0.005128      0.006440     -0.001855
      7.58008      1.45800      6.17103        -0.008181     -0.001134     -0.000745
      6.31884      0.74108      2.03385        -0.022588     -0.094919      0.403124
      6.31117      0.73873      8.17245        -0.008566      0.012948     -0.003099
      7.57051      4.36576      4.10283         0.004975      0.027155     -0.186686
      5.03817      4.36229      4.08170        -0.027670     -0.033750     -0.177860
      3.82160      3.62114      6.14095        -0.021261      0.003824     -0.013477
      2.55462      2.91604      2.00083         0.042192      0.094043      0.332518
      2.53933      2.90549      8.12252         0.012000      0.004430      0.007917
      6.29457      3.62032      6.16891         0.019715      0.002753     -0.001864
      7.58585      2.93043      2.03372         0.110752      0.032986      0.435648
      7.58514      2.93578      8.15380        -0.004652      0.008389     -0.004232
      6.29425      6.55133      4.09264         0.069294     -0.004196     -0.194005
     -2.53557      5.80714      6.14962         0.003330      0.009219     -0.004674
      3.81389      6.57546      4.07284        -0.042044      0.065655     -0.097293
      1.26871      5.10416      2.04534        -0.047629      0.064736      0.179986
      1.25217      5.08490      8.20048         0.001373      0.015328      0.010778
      6.29450      5.11374      2.02822         0.011614      0.110548      0.337854
      6.25940      5.11501      8.15324        -0.003910      0.001927      0.002102
     -2.53139      7.30304      2.00990         0.015592     -0.140375      0.329591
     -2.56535      7.31674      8.14730        -0.007319     -0.005644      0.000853
      0.00464      7.28975      2.05721         0.045561      0.070338      0.273271
     -0.03379      7.31022      8.20023        -0.001579      0.007860      0.007965
      5.08583      7.28318      2.02758        -0.120865      0.065040      0.309724
      5.05076      7.28561      8.15439        -0.001134     -0.002880      0.010195
      7.54405      0.03969      4.10439         0.025288     -0.083902     -0.279210
      0.00600      1.47599      6.07986         0.011676      0.000300     -0.005845
      3.74186      2.14689      4.07389        -0.034945      0.014054     -0.426005
      1.31001      0.72945      2.02674         0.015637     -0.003860      0.145029
      1.27684      0.74155      8.15238        -0.010477      0.000201     -0.011740
      5.08065      1.48167      6.14572         0.003367     -0.014483     -0.006567
      8.82791      0.75063      2.00000         0.020239     -0.030773      0.067075
      8.81862      0.75361      8.17381        -0.015334      0.004212     -0.007209
     -0.02406      4.34464      4.11685        -0.030444     -0.008601     -0.269931
     -1.32758      3.64011      6.16739         0.009081      0.009965     -0.010006
      2.55702      4.37025      4.05870        -0.030251      0.017074     -0.175803
      1.33600      3.63395      6.14624        -0.015788     -0.001247     -0.004798
      0.02215      2.94990      2.02985         0.022064     -0.131120     -0.015274
      0.01525      2.92320      8.22238         0.002919      0.019689     -0.015159
      5.09719      2.93887      2.04044        -0.031336     -0.228964     -0.028336
      5.07366      2.93206      8.22966         0.004705     -0.013291     -0.035681
     -1.32764      6.58396      4.11126        -0.004435     -0.027824     -0.258490
      1.24700      6.55932      4.09363         0.031921     -0.000301     -0.158379
      0.01004      5.80202      6.21762         0.007793     -0.007904      0.007704
     -1.29718      5.12819      2.06865         0.100526      0.078700      0.022063
     -1.31160      5.15211      8.23013         0.001074      0.000700     -0.000012
      2.56240      5.84334      6.17741        -0.002968      0.000502      0.002602
      5.06485      5.75637      6.13403        -0.002139      0.001407      0.003946
      3.79261      5.11061      2.02334         0.041101      0.033766     -0.059774
      3.75172      5.11535      8.24294        -0.000996      0.009621     -0.008855
     -3.78286      7.98916      6.09209        -0.000234      0.005444     -0.004272
     -1.26199      8.00138      6.18123         0.009104     -0.008139      0.006176
      1.24553      8.03477      6.18742         0.007920     -0.022959      0.023371
      3.79785      8.00874      6.15175        -0.000851     -0.009726      0.006271
      2.54183      7.29082      2.05308        -0.193088      0.082739     -0.001409
      2.47444      7.27883      8.25009        -0.002744      0.013704      0.041441
    total drift:                               -0.002131     -0.001903      0.007733

  FREE ENERGIE OF THE ION-ELECTRON SYSTEM (eV)
  free  energy   TOTEN  =      -414.83165337 eV

  energy  without entropy=     -414.84405145  energy(sigma->0) =     -414.83578607

 d Force = 0.2211424E-02[ 0.102E-02, 0.340E-02]  d Energy = 0.2099633E-02 0.112E-03
 d Force = 0.4910278E+02[ 0.491E+02, 0.491E+02]  d Ewald  = 0.4910277E+02 0.390E-05

 Conjugate gradient step on ions:
 trial-energy change:   -0.002100  1 .order   -0.002211   -0.003402   -0.001021
  (g-gl).g = 0.186E-02      g.g   = 0.165E-02  gl.gl    = 0.119E-01
 g(Force)  = 0.165E-02   g(Stress)= 0.000E+00 ortho     =-0.150E-03
 gamma     =   0.15533
 trial     =   2.09543
 opt step  =   4.09511  (harmonic =   2.99409) maximal distance =0.01407536
 next E    =  -414.832043   (d E  =  -0.00249)

 reached required accuracy - stopping structural energy minimisation

 total charge

[...]

 magnetization (x)

# of ion       s       p       d       tot
    1       -0.022  -0.051   0.740   0.666
    2       -0.020  -0.041   0.688   0.627
    3       -0.023  -0.046   0.713   0.644
    4       -0.020  -0.047   0.754   0.686
    5       -0.025  -0.054   0.730   0.650
    6       -0.024  -0.049   0.756   0.684
    7       -0.018  -0.039   0.707   0.650
    8       -0.020  -0.031   0.691   0.640
    9       -0.020  -0.037   0.735   0.678
   10       -0.026  -0.046   0.701   0.629
   11       -0.021  -0.030   0.715   0.664
   12       -0.024  -0.034   0.727   0.669
   13       -0.017  -0.039   0.741   0.685
   14       -0.020  -0.047   0.745   0.677
   15       -0.028  -0.060   0.749   0.661
   16       -0.028  -0.046   0.729   0.655
   17       -0.024  -0.041   0.706   0.641
   18       -0.019  -0.040   0.689   0.631
   19       -0.021  -0.034   0.679   0.624
   20       -0.026  -0.041   0.692   0.624
   21       -0.014  -0.034   0.727   0.679
   22       -0.024  -0.050   0.728   0.654
   23       -0.026  -0.058   0.750   0.666
   24       -0.029  -0.044   0.749   0.676
   25       -0.030  -0.040   0.715   0.645
   26       -0.019  -0.029   0.676   0.628
   27       -0.021  -0.033   0.686   0.631
   28       -0.020  -0.025   0.670   0.625
   29       -0.022  -0.028   0.705   0.655
   30       -0.021  -0.032   0.700   0.647
   31       -0.023  -0.036   0.725   0.666
   32       -0.023  -0.041   0.734   0.670
   33       -0.030  -0.044   0.714   0.641
   34       -0.002  -0.028   2.708   2.678
   35       -0.008  -0.040   2.664   2.616
   36        0.003  -0.019   2.770   2.755
   37        0.010  -0.009   2.891   2.892
   38        0.003  -0.018   2.826   2.812
   39       -0.001  -0.023   2.721   2.697
   40        0.005  -0.014   2.843   2.833
   41        0.001  -0.021   2.779   2.759
   42       -0.009  -0.040   2.658   2.608
   43       -0.006  -0.032   2.683   2.644
   44       -0.004  -0.026   2.659   2.629
   45       -0.005  -0.027   2.650   2.617
   46        0.005  -0.015   2.814   2.804
   47       -0.003  -0.023   2.799   2.773
   48        0.012  -0.009   2.901   2.905
   49        0.012  -0.006   2.890   2.896
   50       -0.001  -0.024   2.727   2.702
   51       -0.006  -0.032   2.687   2.649
   52       -0.012  -0.041   2.614   2.561
   53        0.007  -0.009   2.843   2.841
   54        0.008  -0.010   2.852   2.850
   55       -0.014  -0.042   2.561   2.506
   56       -0.001  -0.022   2.692   2.670
   57        0.008  -0.009   2.828   2.826
   58        0.004  -0.008   2.811   2.806
   59       -0.002  -0.021   2.695   2.672
   60       -0.001  -0.017   2.673   2.655
   61       -0.010  -0.036   2.609   2.563
   62       -0.009  -0.038   2.635   2.588
   63        0.003  -0.012   2.806   2.797
   64        0.002  -0.012   2.786   2.776
tot         -0.758  -2.031 108.737 105.949