 vasp.5.4.4.18Apr17-6-g9f103f2a35 (build Sep 06 2021 19:49:22) complex

 executed on             LinuxIFC date 2021.12.29  15:12:02

 INCAR:
 POTCAR:    PAW_PBE Ni 02Aug2007
 POTCAR:    PAW_PBE Fe 06Sep2000
 POTCAR:    PAW_PBE Ni 02Aug2007
   VRHFIN =Ni:

   TITEL  = PAW_PBE Ni 02Aug2007
   POMASS =   58.690; ZVAL   =   10.000    mass and valenz
   ENMAX  =  269.532; ENMIN  =  202.149 eV

 POTCAR:    PAW_PBE Fe 06Sep2000
   VRHFIN =Fe:  d7 s1

   TITEL  = PAW_PBE Fe 06Sep2000
   POMASS =   55.847; ZVAL   =    8.000    mass and valenz
   ENMAX  =  267.882; ENMIN  =  200.911 eV

 Optimization of the real space projectors (new method)

 maximal supplied QI-value         = 16.25
 optimisation between [QCUT,QGAM] = [ 11.54, 23.24] = [ 37.28,151.24] Ry
 Optimized for a Real-space Cutoff    1.45 Angstroem

   l    n(q)    QCUT    max X(q) W(low)/X(q) W(high)/X(q)  e(spline)
   2      9    11.539    60.317    0.19E-03    0.47E-04    0.16E-06
   2      9    11.539    55.921    0.19E-03    0.48E-04    0.16E-06
   0     10    11.539    51.690    0.80E-04    0.50E-04    0.24E-06
   0     10    11.539    30.015    0.73E-04    0.45E-04    0.22E-06
   1     10    11.539    18.849    0.87E-04    0.16E-03    0.71E-07
   1     10    11.539    14.624    0.73E-04    0.13E-03    0.64E-07
 Optimization of the real space projectors (new method)

 maximal supplied QI-value         = 16.25
 optimisation between [QCUT,QGAM] = [ 11.54, 23.24] = [ 37.28,151.24] Ry
 Optimized for a Real-space Cutoff    1.53 Angstroem

   l    n(q)    QCUT    max X(q) W(low)/X(q) W(high)/X(q)  e(spline)
   2     10    11.539    80.901    0.11E-03    0.14E-03    0.21E-06
   2     10    11.539    75.754    0.11E-03    0.14E-03    0.22E-06
   0     11    11.539    58.752    0.52E-04    0.18E-04    0.33E-06
   0     11    11.539    30.679    0.44E-04    0.16E-04    0.30E-06
   1     10    11.539    17.977    0.53E-04    0.29E-04    0.13E-06
   1     10    11.539    13.559    0.44E-04    0.25E-04    0.11E-06
  PAW_PBE Ni 02Aug2007                  :
  PAW_PBE Fe 06Sep2000                  :

 POSCAR: POSCAR
  positions in direct lattice
  velocities in cartesian coordinates
 exchange correlation table for  LEXCH =        8
   RHO(1)=    0.500       N(1)  =     2000
   RHO(2)=  100.500       N(2)  =     4000

 ion  position               nearest neighbor table
   1  0.248  0.692  0.816-   8 2.48   6 2.52  14 2.52   3 2.54   7 2.55   8 2.55   2 2.55  12 2.56
                             6 2.58   4 2.58   9 2.60  13 2.60
   2  0.001  0.250  0.751-   7 2.50   9 2.51   3 2.53  14 2.53   4 2.54   1 2.55   6 2.56   8 2.56
                             7 2.57  15 2.59   9 2.59  13 2.61
   3  0.249  0.938  0.561-  15 2.50   8 2.51   2 2.53  11 2.53   1 2.54   4 2.55  10 2.56   9 2.56
                            15 2.57   7 2.59   8 2.59   5 2.61
   4  0.002  0.496  0.496-   9 2.48  10 2.52  11 2.52   2 2.54  15 2.55   3 2.55   9 2.55  16 2.56
                            10 2.58   1 2.58   8 2.60   5 2.60
   5  0.995  0.748  0.237-   6 2.42  14 2.44  12 2.44  13 2.44  10 2.49  12 2.50  16 2.53  11 2.54
                            15 2.57  10 2.60   4 2.60   3 2.61
   6  0.739  0.559  0.943-   5 2.42  16 2.44   7 2.46  13 2.49  12 2.51   1 2.52   8 2.54   9 2.55
                             2 2.56  14 2.57   1 2.58  13 2.60
   7  0.512  0.129  0.880-  16 2.42   6 2.46  14 2.47   2 2.50   8 2.50   1 2.55  12 2.55   2 2.57
                            13 2.57   9 2.58  14 2.59   3 2.59
   8  0.738  0.809  0.691-   9 2.46   1 2.48   7 2.50   3 2.51   6 2.54  14 2.54   1 2.55  10 2.55
                             2 2.56  15 2.58   3 2.59   4 2.60
   9  0.512  0.379  0.621-   8 2.46   4 2.48  15 2.50   2 2.51  10 2.54  11 2.54   4 2.55   6 2.55
                             3 2.56   7 2.58   2 2.59   1 2.60
  10  0.511  0.629  0.370-  13 2.42  12 2.44  15 2.46   5 2.49  16 2.51   4 2.52   9 2.54   8 2.55
                             3 2.56  11 2.57   4 2.58   5 2.60
  11  0.254  0.185  0.309-  13 2.44  15 2.47  12 2.48  14 2.50  16 2.50   4 2.52   3 2.53   5 2.54
                             9 2.54  10 2.57  16 2.58  15 2.58
  12  0.507  0.876  0.132-  15 2.42  10 2.44   5 2.44  11 2.48  14 2.50   5 2.50  16 2.50   6 2.51
                            13 2.53   7 2.55   1 2.56  14 2.58
  13  0.255  0.439  0.076-  10 2.42  11 2.44  16 2.44   5 2.44   6 2.49  16 2.50  12 2.53  14 2.54
                             7 2.57   6 2.60   1 2.60   2 2.61
  14  0.996  0.002  0.003-   5 2.44   7 2.47  16 2.48  11 2.50  12 2.50   1 2.52   2 2.53   8 2.54
                            13 2.54   6 2.57  12 2.58   7 2.59
  15  0.738  0.058  0.432-  12 2.42  10 2.46  11 2.47   3 2.50   9 2.50   4 2.55  16 2.55   3 2.57
                             5 2.57   8 2.58  11 2.58   2 2.59
  16  0.743  0.312  0.181-   7 2.42   6 2.44  13 2.44  14 2.48  13 2.50  11 2.50  12 2.50  10 2.51
                             5 2.53  15 2.55   4 2.56  11 2.58

IMPORTANT INFORMATION: All symmetrisations will be switched off!
NOSYMM: (Re-)initialisation of all symmetry stuff for point group C_1.

Automatic generation of k-mesh.
 generate k-points for:    5    4    3
Space group operators:
 irot       det(A)        alpha          n_x          n_y          n_z        tau_x        tau_y        tau_z
    1     1.000000     0.000000     1.000000     0.000000     0.000000     0.000000     0.000000     0.000000

 Subroutine IBZKPT returns following result:

 Found     31 irreducible k-points:

 Following reciprocal coordinates:
            Coordinates               Weight
  0.000000  0.000000  0.000000      1.000000
  0.200000  0.000000  0.000000      2.000000
  0.400000  0.000000  0.000000      2.000000
  0.000000  0.250000  0.000000      2.000000
  0.200000  0.250000  0.000000      2.000000
  0.400000  0.250000  0.000000      2.000000
 -0.400000  0.250000  0.000000      2.000000
 -0.200000  0.250000  0.000000      2.000000
  0.000000  0.500000  0.000000      1.000000
  0.200000  0.500000  0.000000      2.000000
  0.400000  0.500000  0.000000      2.000000
  0.000000  0.000000  0.333333      2.000000
  0.200000  0.000000  0.333333      2.000000
  0.400000  0.000000  0.333333      2.000000
 -0.400000  0.000000  0.333333      2.000000
 -0.200000  0.000000  0.333333      2.000000
  0.000000  0.250000  0.333333      2.000000
  0.200000  0.250000  0.333333      2.000000
  0.400000  0.250000  0.333333      2.000000
 -0.400000  0.250000  0.333333      2.000000
 -0.200000  0.250000  0.333333      2.000000
  0.000000  0.500000  0.333333      2.000000
  0.200000  0.500000  0.333333      2.000000
  0.400000  0.500000  0.333333      2.000000
 -0.400000  0.500000  0.333333      2.000000
 -0.200000  0.500000  0.333333      2.000000
  0.000000 -0.250000  0.333333      2.000000
  0.200000 -0.250000  0.333333      2.000000
  0.400000 -0.250000  0.333333      2.000000
 -0.400000 -0.250000  0.333333      2.000000
 -0.200000 -0.250000  0.333333      2.000000

 Following cartesian coordinates:
            Coordinates               Weight
 -0.000000 -0.000000 -0.000000      1.000000
  0.050000  0.050000 -0.150000      2.000000
  0.100000  0.100000 -0.300000      2.000000
 -0.015625 -0.140625 -0.078125      2.000000
  0.034375 -0.090625 -0.228125      2.000000
  0.084375 -0.040625 -0.378125      2.000000
 -0.115625 -0.240625  0.221875      2.000000
 -0.065625 -0.190625  0.071875      2.000000
 -0.031250 -0.281250 -0.156250      1.000000
  0.018750 -0.231250 -0.306250      2.000000
  0.068750 -0.181250 -0.456250      2.000000
 -0.145833  0.020833 -0.062500      2.000000
 -0.095833  0.070833 -0.212500      2.000000
 -0.045833  0.120833 -0.362500      2.000000
 -0.245833 -0.079167  0.237500      2.000000
 -0.195833 -0.029167  0.087500      2.000000
 -0.161458 -0.119792 -0.140625      2.000000
 -0.111458 -0.069792 -0.290625      2.000000
 -0.061458 -0.019792 -0.440625      2.000000
 -0.261458 -0.219792  0.159375      2.000000
 -0.211458 -0.169792  0.009375      2.000000
 -0.177083 -0.260417 -0.218750      2.000000
 -0.127083 -0.210417 -0.368750      2.000000
 -0.077083 -0.160417 -0.518750      2.000000
 -0.277083 -0.360417  0.081250      2.000000
 -0.227083 -0.310417 -0.068750      2.000000
 -0.130208  0.161458  0.015625      2.000000
 -0.080208  0.211458 -0.134375      2.000000
 -0.030208  0.261458 -0.284375      2.000000
 -0.230208  0.061458  0.315625      2.000000
 -0.180208  0.111458  0.165625      2.000000

 SYSTEM =  SQS-NiFe
 POSCAR =  POSCAR

 Startparameter for this run:
   NWRITE =      2    write-flag & timer
   PREC   = accura    normal or accurate (medium, high low for compatibility)
   ISTART =      0    job   : 0-new  1-cont  2-samecut
   ICHARG =      2    charge: 1-file 2-atom 10-const
   ISPIN  =      2    spin polarized calculation?
   LNONCOLLINEAR =      F non collinear calculations
   LSORBIT =      F    spin-orbit coupling
   INIWAV =      1    electr: 0-lowe 1-rand  2-diag
   LASPH  =      F    aspherical Exc in radial PAW
   METAGGA=      F    non-selfconsistent MetaGGA calc.

 Electronic Relaxation 1
   ENCUT  =  520.0 eV  38.22 Ry    6.18 a.u.   8.14 10.51 14.10*2*pi/ulx,y,z
   ENINI  =  520.0     initial cutoff
   ENAUG  =  544.6 eV  augmentation charge cutoff
   NELM   =    200;   NELMIN=  2; NELMDL= -5     # of ELM steps
   EDIFF  = 0.1E-04   stopping-criterion for ELM
   LREAL  =      T    real-space projection
   NLSPLINE    = F    spline interpolate recip. space projectors
   LCOMPAT=      F    compatible to vasp.4.4
   GGA_COMPAT  = T    GGA compatible to vasp.4.4-vasp.4.6
   LMAXPAW     = -100 max onsite density
   LMAXMIX     =    2 max onsite mixed and CHGCAR
   VOSKOWN=      0    Vosko Wilk Nusair interpolation
   ROPT   =   -0.00025  -0.00025
 Ionic relaxation
   EDIFFG = -.2E-01   stopping-criterion for IOM
   NSW    =     99    number of steps for IOM
   NBLOCK =      1;   KBLOCK =     99    inner block; outer block
   IBRION =      2    ionic relax: 0-MD 1-quasi-New 2-CG
   NFREE  =      1    steps in history (QN), initial steepest desc. (CG)
   ISIF   =      2    stress and relaxation
   IWAVPR =     11    prediction:  0-non 1-charg 2-wave 3-comb
   ISYM   =      0    0-nonsym 1-usesym 2-fastsym
   LCORR  =      T    Harris-Foulkes like correction to forces

   POTIM  = 0.5000    time-step for ionic-motion
   TEIN   =    0.0    initial temperature
   TEBEG  =    0.0;   TEEND  =   0.0 temperature during run
   SMASS  =  -3.00    Nose mass-parameter (am)
   estimated Nose-frequenzy (Omega)   =  0.10E-29 period in steps =****** mass=  -0.438E-27a.u.
   SCALEE = 1.0000    scale energy and forces
   NPACO  =    256;   APACO  = 16.0  distance and # of slots for P.C.
   PSTRESS=    0.0 pullay stress

  Mass of Ions in am
   POMASS =  58.69 55.85
  Ionic Valenz
   ZVAL   =  10.00  8.00
  Atomic Wigner-Seitz radii
  virtual crystal weights
   VCA    =   1.00  1.00
   NELECT =     136.0000    total number of electrons
   NUPDOWN=      -1.0000    fix difference up-down

 DOS related values:
   EMIN   =  10.00;   EMAX   =-10.00  energy-range for DOS
   EFERMI =   0.00
   ISMEAR =     1;   SIGMA  =   0.20  broadening in eV -4-tet -1-fermi 0-gaus

 Electronic relaxation 2 (details)
[...]
   -.130E+01 0.142E+02 -.273E+01   0.144E+01 -.144E+02 0.294E+01   0.294E+00 -.127E+00 0.266E+00   0.666E-02 -.236E-01 -.183E-01
   0.588E+01 -.534E+01 -.859E+01   -.583E+01 0.531E+01 0.876E+01   0.699E+00 -.405E+00 0.425E+00   0.294E-02 0.148E-01 -.546E-02
   0.207E+02 -.438E+01 0.167E+02   -.207E+02 0.457E+01 -.168E+02   0.489E+00 -.115E-01 0.156E+00   -.772E-03 -.307E-02 0.159E-01
   -.339E+02 -.269E+01 -.313E+01   0.338E+02 0.275E+01 0.292E+01   -.341E+00 -.852E-01 -.421E+00   -.637E-02 -.104E-01 0.999E-02
   0.140E+01 -.142E+02 0.270E+01   -.154E+01 0.144E+02 -.291E+01   -.293E+00 0.127E+00 -.267E+00   -.285E-02 0.283E-01 0.241E-01
   0.141E-02 0.106E-02 0.553E-03   0.784E-13 0.711E-13 -.163E-12   0.133E-02 0.126E-02 0.609E-03   -.193E-02 -.205E-03 -.953E-03

 POSITION                                       TOTAL-FORCE (eV/Angst)
     -5.39274     -1.80803     -3.58164         0.024524      0.043791      0.047211
     -5.36882      0.00640     -1.79423         0.148934      0.017806     -0.171912
     -3.56864     -3.58130     -3.56817        -0.148684     -0.018497      0.170797
     -3.54479     -1.76705     -1.78076        -0.024476     -0.043474     -0.048070
      0.08646     -1.80997     -5.31696        -0.748672      0.428566     -0.591607
     -5.41915      0.00950     -5.32494         0.796716     -0.364538     -0.006881
     -5.37842      1.79646     -3.63470         0.378286      0.038134      0.622810
     -3.62528     -1.78339     -5.31885         0.174188      0.257672     -0.028092
     -3.52486     -0.00391     -3.61876        -0.173382     -0.258471      0.029220
     -1.73087     -1.79713     -3.61246        -0.796403      0.366074      0.008212
     -1.75746      0.01399     -1.79403        -0.498224     -0.181799     -0.065752
     -0.03818     -3.55620     -3.61274         0.440652     -0.423277      0.452519
     -0.08663     -1.76506     -1.83301         0.748525     -0.427340      0.591343
      1.75758      1.77353     -3.56836         0.498356      0.180828      0.063763
     -1.77159      1.77853     -3.51548        -0.379603     -0.038079     -0.621549
      0.03839     -0.01887     -3.53739        -0.440737      0.422605     -0.452011
    total drift:                                0.000809      0.002121      0.000209

  FREE ENERGIE OF THE ION-ELECTRON SYSTEM (eV)
  free  energy   TOTEN  =      -117.89005309 eV

  energy  without entropy=     -117.87238156  energy(sigma->0) =     -117.88416258

[...]

 d Force = 0.2167588E+00[ 0.104E+00, 0.329E+00]  d Energy = 0.5719965E+00-0.355E+00
 d Force =-0.9336779E+01[-0.151E+02,-0.357E+01]  d Ewald  =-0.9329390E+01-0.739E-02

 Steepest descent step on ions:
 trial-energy change:   -0.571996  1 .order   -0.216759   -0.329091   -0.104427
  (g-gl).g = 0.329E+00      g.g   = 0.329E+00  gl.gl    = 0.000E+00
 g(Force)  = 0.329E+00   g(Stress)= 0.000E+00 ortho     = 0.000E+00
 gamma     =   0.00000
 trial     =   1.00000
 opt step  =   1.04267  (harmonic =   1.46481) maximal distance =0.04007594
 next E    =  -118.464305   (d E  =  -0.57425)

[...]

 Conjugate gradient step on ions:
 trial-energy change:   -0.020851  1 .order   -0.025300   -0.033406   -0.017194
  (g-gl).g = 0.234E-01      g.g   = 0.292E-01  gl.gl    = 0.329E+00
 g(Force)  = 0.292E-01   g(Stress)= 0.000E+00 ortho     = 0.576E-02
 gamma     =   0.07123
 trial     =   1.12802
 opt step  =   2.32432  (harmonic =   2.32432) maximal distance =0.03127201
 next E    =  -118.532208   (d E  =  -0.03442)

[...]

 d Force = 0.9862238E-02[ 0.149E-02, 0.182E-01]  d Energy = 0.1155772E-01-0.170E-02
 d Force =-0.2588148E+01[-0.305E+01,-0.213E+01]  d Ewald  =-0.2588025E+01-0.123E-03

[...]

 d Force = 0.6112574E-04[-0.104E-04, 0.133E-03]  d Energy =-0.1942517E-02 0.200E-02
 d Force =-0.2747057E+00[-0.278E+00,-0.271E+00]  d Ewald  =-0.2747056E+00-0.777E-07

[...]

 d Force = 0.5016867E-02[ 0.288E-02, 0.715E-02]  d Energy = 0.5033282E-02-0.164E-04
 d Force = 0.2669655E+01[ 0.255E+01, 0.279E+01]  d Ewald  = 0.2669721E+01-0.664E-04

 Conjugate gradient step on ions:
 trial-energy change:   -0.005033  1 .order   -0.005017   -0.007152   -0.002882
  (g-gl).g = 0.371E-02      g.g   = 0.516E-02  gl.gl    = 0.292E-01
 g(Force)  = 0.516E-02   g(Stress)= 0.000E+00 ortho     =-0.975E-04
 gamma     =   0.12695
 trial     =   1.38858
 opt step  =   2.32599  (harmonic =   2.32599) maximal distance =0.01249267
 next E    =  -118.534247   (d E  =  -0.00599)

[...]

 d Force = 0.9592158E-03[ 0.519E-03, 0.140E-02]  d Energy = 0.9757250E-03-0.165E-04
 d Force = 0.4162913E+00[ 0.395E+00, 0.437E+00]  d Ewald  = 0.4162816E+00 0.973E-05

 Conjugate gradient step on ions:
 trial-energy change:   -0.000976  1 .order   -0.000959   -0.001400   -0.000519
  (g-gl).g = 0.705E-03      g.g   = 0.887E-03  gl.gl    = 0.516E-02
 g(Force)  = 0.887E-03   g(Stress)= 0.000E+00 ortho     = 0.110E-04
 gamma     =   0.13662
 trial     =   1.57606
 opt step  =   2.50382  (harmonic =   2.50382) maximal distance =0.00570344
 next E    =  -118.535395   (d E  =  -0.00111)

 real space projection operators:
  max/ min on nodes  :       2105.02       1565.86

[...]

 eigenvalue-minimisations  : 12648
 total energy-change (2. order) :-0.2181354E-03  (-0.5933770E-04)
 number of electron     136.0000022 magnetization      16.0808369
 augmentation part       74.3108091 magnetization      13.3073377

[...]

 Broyden mixing:
  rms(total) = 0.10876E-01    rms(broyden)= 0.10876E-01
  rms(prec ) = 0.15580E-01
  weight for this iteration     100.00

 eigenvalues of (default mixing * dielectric matrix)
  average eigenvalue GAMMA=   0.2437
  0.6731  0.2771  0.1200  0.0850  0.0633

[...]

--------------------------------------- Iteration     13(   7)  ---------------------------------------

 eigenvalue-minimisations  :  6636
 total energy-change (2. order) : 0.4479996E-05  (-0.6625355E-06)
 number of electron     136.0000022 magnetization      16.0818099
 augmentation part       74.3125258 magnetization      13.3050250

 Free energy of the ion-electron system (eV)
  alpha Z        PSCENC =       923.24942624
  Ewald energy   TEWEN  =    -10699.34444403
  -Hartree energ DENC   =     -2154.74932189
  -exchange      EXHF   =         0.00000000
  -V(xc)+E(xc)   XCENC  =       169.33540084
  PAW double counting   =     12957.13930627   -13337.17994779
  entropy T*S    EENTRO =         0.00370216
  eigenvalues    EBANDS =       580.57464203
  atomic energy  EATOM  =     11442.43584605
  Solvation  Ediel_sol  =         0.00000000
  free energy    TOTEN  =      -118.53539013 eV

  energy without entropy =     -118.53909228  energy(sigma->0) =     -118.53662418

 average (electrostatic) potential at core
  the test charge radii are     0.9791  1.0103
  (the norm of the test charge is              1.0000)
       1 -84.8021       2 -84.7380       3 -84.7227       4 -84.8149       5 -42.7425
       6 -42.8067       7 -42.8374       8 -43.2563       9 -42.6746      10 -42.7754
      11 -42.7463      12 -42.6834      13 -42.7256      14 -42.7412      15 -42.8437
      16 -42.6951

 E-fermi :   6.6160     XC(G=0): -13.0681     alpha+bet :-14.0976

[...]

 spin component 2

[...]

 k-point    31 :      -0.2000   -0.2500    0.3333
  band No.  band energies     occupation
      1      -0.9885      1.00000
      2       0.4168      1.00000
      3       1.2098      1.00000
      4       1.5043      1.00000
      5       2.1570      1.00000
      6       2.2793      1.00000
      7       2.5995      1.00000
      8       2.7388      1.00000
      9       2.8005      1.00000
     10       2.9132      1.00000
     11       2.9910      1.00000
     12       3.0223      1.00000
     13       3.2377      1.00000
     14       3.3715      1.00000
     15       3.4301      1.00000
     16       3.4858      1.00000
     17       3.5700      1.00000
     18       3.6841      1.00000
     19       3.8459      1.00000
     20       3.9549      1.00000
     21       3.9713      1.00000
     22       4.0444      1.00000
     23       4.1220      1.00000
     24       4.1676      1.00000
     25       4.2110      1.00000
     26       4.2810      1.00000
     27       4.3434      1.00000
     28       4.4132      1.00000
     29       4.4622      1.00000
     30       4.6433      1.00000
     31       4.7027      1.00000
     32       4.7504      1.00000
     33       4.8505      1.00000
     34       4.8755      1.00000
     35       4.9715      1.00000
     36       5.0402      1.00000
     37       5.1055      1.00000
     38       5.1549      1.00000
     39       5.1762      1.00000
     40       5.2395      1.00000
     41       5.2770      1.00000
     42       5.3483      1.00000
     43       5.4254      1.00000
     44       5.4800      1.00000
     45       5.5407      1.00000
     46       5.6046      1.00000
     47       5.6454      1.00000
     48       5.7244      1.00000
     49       5.7810      1.00000
     50       5.8142      1.00000
     51       5.9221      1.00001
     52       6.0153      1.00009
     53       6.0603      1.00031
     54       6.1436      1.00210
     55       6.2113      1.00741
     56       6.2807      1.01959
     57       6.3739      1.03543
     58       6.4443      1.00351
     59       6.5029      0.90381
     60       6.5454      0.77892
[...]
     88       9.7203     -0.00000
     89      10.2885     -0.00000
     90      10.4033     -0.00000
     91      10.4899     -0.00000
     92      10.7222     -0.00000
     93      11.3418     -0.00000
     94      11.9251     -0.00000
     95      12.3228      0.00000
     96      13.4154      0.00000
     97      13.8917      0.00000
     98      14.0396      0.00000
     99      14.1037      0.00000
    100      14.5469      0.00000
    101      15.2875      0.00000
    102      15.7225      0.00000

[...]

 soft charge-density along one line, spin component           2
         0         1         2         3         4         5         6         7         8         9
 total charge-density along one line

------------------------ aborting loop because EDIFF is reached ----------------------------------------

[...]

  FORCE on cell =-STRESS in cart. coord.  units (eV):
  Direction    XX          YY          ZZ          XY          YZ          ZX
  Alpha Z   923.24943   923.24943   923.24943
  Ewald   -3596.63625 -3543.07016 -3559.66465     4.51139    12.93225   -18.02892
  Hartree   686.16319   744.47024   724.07818     3.55661    15.28453   -17.53448
  E(xc)    -691.78952  -692.13735  -692.05343     0.05542    -0.11640     0.05505
  Local     669.33310   553.39979   592.01505    -7.93201   -30.82561    36.34502
  n-local  -344.73848  -346.02696  -346.29875     0.37378    -0.49049     0.34312
  augment  1164.81597  1167.60525  1166.52175    -0.42621     2.12863    -0.35028
  Kinetic  1182.21484  1184.37303  1183.83386    -1.17575     0.66402    -0.71839
  Fock        0.00000     0.00000     0.00000     0.00000     0.00000     0.00000
  Total      -7.38772    -8.13675    -8.31857    -1.03678    -0.42307     0.11112
  in kB     -64.76389   -71.33016   -72.92413    -9.08881    -3.70877     0.97408

 VOLUME and BASIS-vectors are now :
  energy-cutoff  :      520.00
  volume of cell :      182.76
      direct lattice vectors                 reciprocal lattice vectors
     1.787500000  1.787500000 -3.575000000     0.069930070  0.069930070 -0.209790210
     0.000000000 -5.362500000 -1.787500000    -0.017482517 -0.157342657 -0.087412587
    -7.150000000  1.787500000 -1.787500000    -0.122377622  0.017482517 -0.052447552

  length of vectors
     4.378462915  5.652571318  7.583720228     0.231931804  0.180840567  0.134285765

 FORCES acting on ions
    electron-ion (+dipol)            ewald-force                    non-local-force                 convergence-correction
   0.705E+02 -.463E+01 0.434E+02   -.708E+02 0.468E+01 -.436E+02   0.235E+00 -.898E-01 0.197E+00   0.140E+00 0.475E-01 0.454E-01
   0.627E+02 -.259E+02 -.272E+01   -.628E+02 0.259E+02 0.277E+01   0.439E-01 0.120E+00 -.774E-01   0.552E-01 -.723E-01 0.263E-01
   -.516E+02 0.154E+02 -.194E+01   0.518E+02 -.156E+02 0.182E+01   -.287E+00 0.339E+00 0.143E+00   0.500E-01 -.438E-01 -.338E-01
   -.678E+02 0.173E+02 -.368E+02   0.679E+02 -.172E+02 0.368E+02   -.115E+00 -.194E+00 -.449E-01   -.105E-01 0.936E-01 0.857E-01
   -.396E+02 0.188E+02 -.248E+02   0.400E+02 -.191E+02 0.251E+02   -.335E+00 0.260E+00 -.248E+00   -.840E-01 0.730E-01 0.187E-01
   0.709E+02 -.155E+02 0.187E+02   -.716E+02 0.156E+02 -.186E+02   0.632E+00 -.214E+00 -.297E-01   0.357E-01 0.461E-01 0.182E-01
   0.543E+02 -.237E+01 0.371E+02   -.550E+02 0.207E+01 -.373E+02   0.695E+00 0.390E+00 0.219E+00   0.259E-01 -.101E+00 -.536E-01
   0.161E+02 0.154E+02 0.641E+01   -.161E+02 -.152E+02 -.624E+01   -.551E-01 -.258E+00 -.221E+00   0.574E-01 0.376E-01 0.482E-01
   -.599E+01 -.117E+02 0.160E+01   0.601E+01 0.119E+02 -.169E+01   -.607E-01 -.174E+00 0.762E-01   0.340E-01 -.170E-01 0.713E-02
   -.722E+02 0.232E+02 -.127E+02   0.728E+02 -.234E+02 0.129E+02   -.547E+00 0.425E-01 -.195E+00   -.500E-01 0.144E+00 0.257E-01
   -.572E+02 -.336E+01 -.253E+02   0.576E+02 0.341E+01 0.255E+02   -.364E+00 0.226E-01 -.177E+00   -.116E+00 -.692E-01 -.333E-01
   0.225E+02 -.184E+02 0.113E+02   -.226E+02 0.186E+02 -.115E+02   0.190E+00 -.182E+00 0.184E+00   -.454E-01 -.304E-01 -.230E-01
   0.365E+02 -.144E+02 0.239E+02   -.369E+02 0.146E+02 -.243E+02   0.422E+00 -.240E+00 0.288E+00   -.251E-01 0.417E-01 0.407E-01
   0.474E+02 -.616E+00 0.139E+02   -.480E+02 0.777E+00 -.142E+02   0.547E+00 -.956E-01 0.287E+00   0.222E-01 -.750E-01 -.415E-01
   -.574E+02 -.121E+02 -.388E+02   0.579E+02 0.121E+02 0.392E+02   -.575E+00 0.110E+00 -.313E+00   0.567E-02 -.650E-01 -.277E-01
   -.294E+02 0.189E+02 -.131E+02   0.298E+02 -.191E+02 0.134E+02   -.298E+00 0.130E+00 -.188E+00   -.475E-01 -.157E-01 -.820E-01
   -.176E+00 0.413E-01 0.783E-01   0.426E-12 -.568E-13 -.178E-13   0.129E+00 -.335E-01 -.993E-01   0.476E-01 -.616E-02 0.211E-01

 POSITION                                       TOTAL-FORCE (eV/Angst)
     -5.37181     -1.80057     -3.57778         0.013137      0.007267      0.006313
     -5.35729      0.00589     -1.79344         0.014238     -0.013456     -0.002140
     -3.56832     -3.58268     -3.57307        -0.012365      0.005289     -0.003809
     -3.56891     -1.76402     -1.78217        -0.010160      0.009280     -0.002357
     -1.78385     -3.55774     -1.79562         0.005225      0.010188      0.007317
     -5.36956     -0.02911     -5.35218         0.002054     -0.012531     -0.004820
     -5.35580      1.78408     -3.59842        -0.001882     -0.008444     -0.014738
     -3.57483     -1.76481     -5.32895         0.003185     -0.003227     -0.003478
     -3.55903     -0.01541     -3.59805        -0.004440      0.000917      0.001567
     -1.77587     -1.75390     -3.57595        -0.004064      0.014242      0.007990
     -1.78994     -0.01456     -1.80821         0.006715      0.001438      0.004073
      0.01159     -3.62291     -3.58373        -0.006754     -0.003776     -0.000323
     -0.00892     -1.80159     -1.77383        -0.005392      0.001902     -0.000887
     -0.01666      0.00777     -0.00414         0.001029     -0.009323     -0.008472
     -1.79745      1.76992     -3.55301        -0.004753      0.006158      0.007406
     -0.01335      0.05216     -3.56395         0.004226     -0.005925      0.006358
    total drift:                                0.000795      0.001666      0.000046

  FREE ENERGIE OF THE ION-ELECTRON SYSTEM (eV)
  free  energy   TOTEN  =      -118.53539013 eV

  energy  without entropy=     -118.53909228  energy(sigma->0) =     -118.53662418

 d Force = 0.1514733E-03[-0.237E-05, 0.305E-03]  d Energy = 0.1314710E-03 0.200E-04
 d Force = 0.2253644E+00[ 0.218E+00, 0.233E+00]  d Ewald  = 0.2253624E+00 0.199E-05

 reached required accuracy - stopping structural energy minimisation

 total charge

[...]

 magnetization (x)

# of ion       s       p       d       tot
    1       -0.007  -0.017   0.275   0.251
    2       -0.016  -0.027   0.365   0.321
    3       -0.012  -0.023   0.336   0.301
    4       -0.011  -0.024   0.332   0.297
    5       -0.003  -0.020   2.326   2.303
    6        0.006  -0.006   2.211   2.211
    7        0.008  -0.003   2.270   2.276
    8       -0.035  -0.043  -2.448  -2.527
    9       -0.015  -0.020   0.047   0.012
   10        0.004  -0.007   2.148   2.144
   11       -0.001  -0.017   2.010   1.993
   12       -0.025  -0.048   0.149   0.076
   13       -0.001  -0.020   2.306   2.285
   14        0.000  -0.012   2.006   1.994
   15        0.009  -0.003   2.264   2.270
   16       -0.025  -0.051  -0.077  -0.152
tot         -0.123  -0.341  16.518  16.055