 vasp.5.4.4.18Apr17-6-g9f103f2a35 (build Dec 15 2018 21:27:11) complex

 executed on             LinuxIFC date 2022.03.12  19:10:46

 INCAR:
 POTCAR:    PAW_PBE Ni 02Aug2007
 POTCAR:    PAW_PBE Fe 06Sep2000
 POTCAR:    PAW_PBE O 08Apr2002
 POTCAR:    PAW_PBE H 15Jun2001

 POTCAR:    PAW_PBE Ni 02Aug2007
   VRHFIN =Ni:

   TITEL  = PAW_PBE Ni 02Aug2007
   POMASS =   58.690; ZVAL   =   10.000    mass and valenz
   ENMAX  =  269.532; ENMIN  =  202.149 eV

 POTCAR:    PAW_PBE Fe 06Sep2000
   VRHFIN =Fe:  d7 s1

   TITEL  = PAW_PBE Fe 06Sep2000
   POMASS =   55.847; ZVAL   =    8.000    mass and valenz
   ENMAX  =  267.882; ENMIN  =  200.911 eV

 POTCAR:    PAW_PBE O 08Apr2002
   VRHFIN =O: s2p4

   TITEL  = PAW_PBE O 08Apr2002
   POMASS =   16.000; ZVAL   =    6.000    mass and valenz
   ENMAX  =  400.000; ENMIN  =  300.000 eV

 POTCAR:    PAW_PBE H 15Jun2001
   VRHFIN =H: ultrasoft test

   TITEL  = PAW_PBE H 15Jun2001
   POMASS =    1.000; ZVAL   =    1.000    mass and valenz
   ENMAX  =  250.000; ENMIN  =  200.000 eV

 Optimization of the real space projectors (new method)

 maximal supplied QI-value         = 16.25
 optimisation between [QCUT,QGAM] = [ 11.54, 23.24] = [ 37.28,151.24] Ry
 Optimized for a Real-space Cutoff    1.45 Angstroem

   l    n(q)    QCUT    max X(q) W(low)/X(q) W(high)/X(q)  e(spline)
   2      9    11.539    60.317    0.19E-03    0.47E-04    0.16E-06
   2      9    11.539    55.921    0.19E-03    0.48E-04    0.16E-06
   0     10    11.539    51.690    0.80E-04    0.50E-04    0.24E-06
   0     10    11.539    30.015    0.73E-04    0.45E-04    0.22E-06
   1     10    11.539    18.849    0.87E-04    0.16E-03    0.71E-07
   1     10    11.539    14.624    0.73E-04    0.13E-03    0.64E-07
 Optimization of the real space projectors (new method)

[...]

   l    n(q)    QCUT    max X(q) W(low)/X(q) W(high)/X(q)  e(spline)
   0      8    11.635    20.381    0.10E-03    0.33E-03    0.24E-06
   0      8    11.635    15.268    0.11E-03    0.35E-03    0.26E-06
   1      7    11.635     5.964    0.24E-03    0.31E-03    0.30E-06
   1      7    11.635     5.382    0.22E-03    0.25E-03    0.26E-06
 Optimization of the real space projectors (new method)

 maximal supplied QI-value         = 34.20
 optimisation between [QCUT,QGAM] = [ 11.63, 23.26] = [ 37.87,151.49] Ry
 Optimized for a Real-space Cutoff    1.21 Angstroem

   l    n(q)    QCUT    max X(q) W(low)/X(q) W(high)/X(q)  e(spline)
   0      8    11.629    19.460    0.17E-03    0.34E-03    0.21E-06
   0      8    11.629    12.209    0.16E-03    0.33E-03    0.21E-06
   1      8    11.629     4.655    0.18E-03    0.16E-03    0.26E-06
  PAW_PBE Ni 02Aug2007                  :
  PAW_PBE Fe 06Sep2000                  :
  PAW_PBE O 08Apr2002                   :
  PAW_PBE H 15Jun2001                   :

 POSCAR: POSCAR
  positions in direct lattice
  velocities in cartesian coordinates
 exchange correlation table for  LEXCH =        8
   RHO(1)=    0.500       N(1)  =     2000
   RHO(2)=  100.500       N(2)  =     4000

 VTST: version 3.2, (02/03/18)

 CHAIN: initializing optimizer

 OPT: Using VASP Dynamics algorithm
 CHAIN: Read ICHAIN            0

 POSCAR: POSCAR
  positions in direct lattice
  velocities in cartesian coordinates

 ion  position               nearest neighbor table
   1  0.999  0.001  0.191-  35 2.44  59 2.48  23 2.50  32 2.50   5 2.52  40 2.52  37 2.52   2 2.53
                             4 2.53  21 2.54  34 2.54  62 2.59
   2  0.248  0.999  0.192-  59 2.45  50 2.47  36 2.48   6 2.49  37 2.50   3 2.51  28 2.52  60 2.52
                             5 2.52  21 2.53   1 2.53   8 2.56
   3  0.499  0.002  0.192-  39 2.46  36 2.49  30 2.50  60 2.50  34 2.51   2 2.51   8 2.52  11 2.52
                             7 2.53  50 2.54  51 2.54  61 2.57
   4  0.998  0.251  0.192-  35 2.46  42 2.49  19 2.50  43 2.50  34 2.50  13 2.50   7 2.53   1 2.53
                            40 2.53  10 2.54   5 2.55  46 2.55
   5  0.249  0.249  0.191-  36 2.48  45 2.48  35 2.49  37 2.50  46 2.50   6 2.51   1 2.52  42 2.52
                             2 2.52  16 2.54   4 2.55  44 2.55
   6  0.332  0.165  0.287-  17 2.46  38 2.47   9 2.47  36 2.47   2 2.49   5 2.51  59 2.52  45 2.53
                            60 2.54  15 2.55  39 2.56  35 2.56
   7  0.749  0.253  0.193-  39 2.42  18 2.46  14 2.49  48 2.49  13 2.51  34 2.51  10 2.52   4 2.53
                             3 2.53  11 2.54  36 2.55  19 2.55
   8  0.418  0.084  0.094-  37 2.49  36 2.51  16 2.51   3 2.52  11 2.52  30 2.53  28 2.53  48 2.56
                             2 2.56
   9  0.416  0.086  0.382-  68 1.84  38 2.43   6 2.47  17 2.48  60 2.50  49 2.53  12 2.53  29 2.53
                            39 2.54  31 2.55
  10  0.831  0.166  0.290-  41 2.44  12 2.46  39 2.48  20 2.49  34 2.49  35 2.51  43 2.51   7 2.52
                            62 2.53  18 2.53   4 2.54  61 2.55
  11  0.668  0.085  0.096-  34 2.51  40 2.51  48 2.51   8 2.52   3 2.52  19 2.53  30 2.54  63 2.54
                             7 2.54
  12  0.667  0.087  0.384-  68 1.85  10 2.46  20 2.48  41 2.49  39 2.51  49 2.52   9 2.53  61 2.54
                            64 2.56  31 2.57
  13  0.999  0.499  0.193-  43 2.44  22 2.47  18 2.49  53 2.50   4 2.50  42 2.51   7 2.51  19 2.52
                            50 2.52  21 2.53  14 2.53  26 2.55
  14  0.748  0.499  0.192-  15 2.47  44 2.48  18 2.49   7 2.49  48 2.49  56 2.49  57 2.52  26 2.52
                            21 2.52  23 2.53  13 2.53  36 2.57
  15  0.584  0.419  0.286-  49 2.44  56 2.46  14 2.47  44 2.47  45 2.49  17 2.50  18 2.50  36 2.52
                             6 2.55  55 2.56  39 2.56  58 2.63
  16  0.420  0.333  0.094-  36 2.51   8 2.51  37 2.52  57 2.52  44 2.52  46 2.53  24 2.54  48 2.54
                             5 2.54
  17  0.414  0.330  0.381-  66 1.85  38 2.44   6 2.46   9 2.48  45 2.50  15 2.50  49 2.51  47 2.54
                            25 2.55  58 2.58
  18  0.830  0.416  0.287-  49 2.42   7 2.46  56 2.48  43 2.48  14 2.49  13 2.49  39 2.49  15 2.50
                            10 2.53  20 2.53  27 2.54  22 2.54
  19  0.919  0.335  0.096-  48 2.49   4 2.50  40 2.51  53 2.51  13 2.52  11 2.53  26 2.54  46 2.54
                             7 2.55
  20  0.914  0.332  0.385-  67 1.86  41 2.47  12 2.48  10 2.49  43 2.51  49 2.52  18 2.53  47 2.54
                            27 2.59  54 2.60
  21  0.998  0.749  0.193-  59 2.45  50 2.48  23 2.48  22 2.49  32 2.50  56 2.51  26 2.52  14 2.52
                             2 2.53  13 2.53   1 2.54  28 2.55
  22  0.083  0.666  0.287-  29 2.43  50 2.44  13 2.47  43 2.47  21 2.49  54 2.52  60 2.52  18 2.54
                            59 2.54  56 2.54  27 2.56  52 2.65
  23  0.753  0.752  0.192-  62 2.47  21 2.48  63 2.49   1 2.50  32 2.51  56 2.51  57 2.52  55 2.53
                            14 2.53  44 2.54  51 2.57  34 2.58
  24  0.417  0.584  0.096-  46 2.49  44 2.50  51 2.51  57 2.52  30 2.52  63 2.53  16 2.54  42 2.56
                            53 2.57
  25  0.412  0.581  0.383-  66 1.89  52 2.42  54 2.48  47 2.51  55 2.52  45 2.52  31 2.53  17 2.55
                            58 2.56  64 2.56
  26  0.916  0.585  0.095-  48 2.48  32 2.48  57 2.50  53 2.51  21 2.52  14 2.52  28 2.53  19 2.54
                            13 2.55
  27  0.910  0.586  0.384-  67 1.89  56 2.45  58 2.45  33 2.48  49 2.50  18 2.54  29 2.56  22 2.56
                            20 2.59  54 2.61
  28  0.167  0.835  0.095-  32 2.48  37 2.49  53 2.50   2 2.52  50 2.53   8 2.53  26 2.53  30 2.54
                            21 2.55
  29  0.165  0.836  0.377-  60 2.41  59 2.43  22 2.43  38 2.47  33 2.50  54 2.52   9 2.53  31 2.54
                            27 2.56
  30  0.417  0.833  0.097-  51 2.49   3 2.50  53 2.52  24 2.52   8 2.53  11 2.54  28 2.54  63 2.54
                            50 2.55
  31  0.413  0.832  0.385-  68 1.86  54 2.45  52 2.48  60 2.50  25 2.53  61 2.53  29 2.54  64 2.54
                             9 2.55  12 2.57
  32  0.920  0.833  0.095-  28 2.48  26 2.48   1 2.50  21 2.50  23 2.51  57 2.53  37 2.54  63 2.54
                            40 2.57
  33  0.916  0.834  0.381-  65 1.95  27 2.48  56 2.48  62 2.49  59 2.50  29 2.50  58 2.51  64 2.53
                            41 2.57  38 2.58
  34  0.749  0.005  0.193-  62 2.47  10 2.49  61 2.50   4 2.50  11 2.51   7 2.51   3 2.51  63 2.54
                             1 2.54  51 2.55  40 2.57  23 2.58
  35  0.077  0.161  0.284-   1 2.44   4 2.46  47 2.47   5 2.49  59 2.49  10 2.51  41 2.54  62 2.56
                             6 2.56  43 2.60  45 2.60  38 2.61
  36  0.493  0.245  0.192-   6 2.47   5 2.48   2 2.48   3 2.49  39 2.50  16 2.51   8 2.51  44 2.52
                            15 2.52   7 2.55  14 2.57  48 2.57
  37  0.171  0.083  0.095-  28 2.49   8 2.49   2 2.50   5 2.50  16 2.52   1 2.52  32 2.54  46 2.57
                            40 2.58
  38  0.175  0.086  0.384-  65 1.85   9 2.43  17 2.44   6 2.47  29 2.47  47 2.55  59 2.58  33 2.58
                            35 2.61  41 2.65
  39  0.586  0.167  0.286-   7 2.42   3 2.46  49 2.48  10 2.48  18 2.49  36 2.50  12 2.51   9 2.54
                            60 2.55   6 2.56  15 2.56  61 2.58
  40  0.917  0.086  0.094-  19 2.51  11 2.51   1 2.52  63 2.53   4 2.53  46 2.55  34 2.57  32 2.57
                            37 2.58
  41  0.914  0.088  0.383-  65 1.85  10 2.44  20 2.47  12 2.49  47 2.50  35 2.54  64 2.54  62 2.56
                            33 2.57  38 2.65
  42  0.246  0.497  0.194-  45 2.45  43 2.48   4 2.49  13 2.51  46 2.51   5 2.52  53 2.54  52 2.54
                            51 2.55  24 2.56  44 2.58  50 2.59
  43  0.077  0.418  0.287-  47 2.43  13 2.44  22 2.47  42 2.48  18 2.48   4 2.50  10 2.51  20 2.51
                            54 2.56  35 2.60  45 2.63  52 2.66
  44  0.503  0.500  0.191-  15 2.47  14 2.48  45 2.48  57 2.49  24 2.50  36 2.52  16 2.52  23 2.54
                             5 2.55  51 2.55  55 2.55  42 2.58
  45  0.336  0.417  0.285-  42 2.45  47 2.45  44 2.48   5 2.48  15 2.49  17 2.50  25 2.52   6 2.53
                            52 2.53  55 2.54  35 2.60  43 2.63
  46  0.171  0.337  0.096-  24 2.49   5 2.50  42 2.51  16 2.53  19 2.54   4 2.55  53 2.55  40 2.55
                            37 2.57
  47  0.164  0.331  0.377-  43 2.43  45 2.45  35 2.47  41 2.50  25 2.51  17 2.54  20 2.54  38 2.55
                            54 2.59
  48  0.673  0.336  0.096-  26 2.48  19 2.49  14 2.49   7 2.49  11 2.51  57 2.53  16 2.54   8 2.56
                            36 2.57
  49  0.666  0.336  0.379-  18 2.42  15 2.44  39 2.48  27 2.50  17 2.51  12 2.52  20 2.52   9 2.53
                            58 2.54
  50  0.245  0.753  0.193-  22 2.44  60 2.45   2 2.47  21 2.48  53 2.51  13 2.52  28 2.53   3 2.54
                            30 2.55  51 2.57  52 2.58  42 2.59
  51  0.498  0.750  0.193-  52 2.43  61 2.48  55 2.48  30 2.49  24 2.51  63 2.52   3 2.54  44 2.55
                            34 2.55  42 2.55  23 2.57  50 2.57
  52  0.348  0.673  0.289-  55 2.39  61 2.39  25 2.42  51 2.43  31 2.48  60 2.51  45 2.53  42 2.54
                            54 2.57  50 2.58  22 2.65  43 2.66
[...]
   -.668E+02 0.116E+02 0.285E+04   0.674E+02 -.121E+02 -.285E+04   -.291E+00 0.127E+00 -.679E+00   -.186E+00 0.463E+00 0.569E+00
   -.823E+02 0.102E+03 -.253E+04   0.830E+02 -.104E+03 0.253E+04   -.291E+00 0.216E+01 0.796E+00   -.458E+00 -.115E-01 -.711E+00
   -.432E+00 -.201E+02 0.988E+03   -.522E-01 0.207E+02 -.988E+03   0.133E+00 0.102E+00 -.142E+00   0.370E+00 -.705E+00 -.610E+00
   -.940E+02 -.139E+02 -.735E+03   0.944E+02 0.145E+02 0.735E+03   0.775E-01 0.357E-01 0.570E+00   -.446E+00 -.577E+00 -.110E+01
   0.130E+03 -.660E+01 0.102E+04   -.131E+03 0.706E+01 -.102E+04   0.681E-01 0.219E-01 -.304E+00   0.966E+00 -.539E+00 -.120E+01
   0.125E+02 -.486E+01 0.274E+04   -.123E+02 0.538E+01 -.273E+04   0.124E-02 0.130E+00 -.122E+01   -.178E+00 -.556E+00 0.456E-01
   0.144E+03 -.477E+01 -.239E+04   -.147E+03 0.622E+01 0.239E+04   0.243E+01 -.101E+01 0.772E+00   -.245E+00 -.450E+00 0.342E+00
   0.246E+01 0.276E+02 0.286E+04   -.277E+01 -.273E+02 -.286E+04   0.218E+00 0.126E+00 -.903E+00   0.952E-01 -.250E+00 0.697E+00
   0.982E+02 -.511E+02 -.252E+04   -.100E+03 0.525E+02 0.252E+04   0.192E+01 -.119E+01 0.786E+00   0.327E+00 -.242E+00 -.557E+00
   -.356E+02 0.155E+02 0.284E+04   0.363E+02 -.153E+02 -.284E+04   -.197E+00 0.166E-01 -.125E+01   -.414E+00 -.379E+00 0.282E+00
   0.356E+01 -.412E+01 -.248E+04   -.367E+01 0.399E+01 0.248E+04   0.165E+00 0.690E-01 0.290E+01   -.305E-01 0.596E-01 -.309E+00
   -.532E+02 0.750E+02 0.276E+04   0.537E+02 -.750E+02 -.276E+04   -.934E-01 0.265E+00 -.141E+01   -.342E+00 -.194E+00 -.606E-01
   0.139E+02 0.178E+03 -.243E+04   -.137E+02 -.181E+03 0.243E+04   0.363E+00 0.216E+01 0.671E+00   -.616E+00 0.474E+00 0.302E+00
   0.925E+02 -.476E+02 0.285E+04   -.934E+02 0.480E+02 -.285E+04   0.320E+00 -.225E+00 -.558E+00   0.474E+00 -.161E+00 0.117E+00
   0.452E+01 0.549E+02 -.237E+04   -.464E+01 -.577E+02 0.236E+04   -.647E+00 0.286E+01 0.145E+01   0.765E+00 -.736E-01 0.855E-01
   -.109E+02 0.701E+02 0.815E+03   0.110E+02 -.710E+02 -.815E+03   -.157E-01 0.403E-02 0.157E+00   0.535E-01 0.820E+00 -.666E+00
   -.311E+01 -.210E+02 -.602E+03   0.302E+01 0.209E+02 0.603E+03   -.129E+00 -.276E+00 -.490E-01   0.201E+00 0.372E+00 -.903E+00
   0.125E+02 -.369E+02 0.841E+03   -.126E+02 0.368E+02 -.841E+03   -.119E+00 -.966E-01 -.357E+00   0.991E-01 0.293E+00 -.117E+00
   0.634E+02 -.477E+02 0.228E+04   -.637E+02 0.479E+02 -.228E+04   0.307E+00 -.393E+00 -.236E+01   -.412E-01 0.147E+00 0.141E+00
   -.138E+02 -.741E+02 -.198E+04   0.141E+02 0.746E+02 0.198E+04   -.622E+00 -.453E+00 0.181E+01   0.391E+00 -.272E-01 -.331E+00
   0.230E+02 0.446E+02 -.556E+03   -.230E+02 -.449E+02 0.556E+03   0.167E+00 -.283E+00 0.612E+00   -.175E+00 0.612E+00 -.452E+00
   -.191E+02 0.114E+02 0.227E+04   0.190E+02 -.117E+02 -.227E+04   -.159E+00 -.106E+00 -.290E+01   0.261E+00 0.278E+00 0.708E-01
   0.101E+02 -.753E+02 -.193E+04   -.106E+02 0.759E+02 0.193E+04   0.673E+00 -.109E+01 0.202E+01   -.159E+00 0.486E+00 -.707E-01
   -.475E+02 -.513E+02 0.780E+03   0.482E+02 0.521E+02 -.780E+03   -.554E-01 0.162E-01 -.290E+00   -.591E+00 -.558E+00 -.629E+00
   -.133E+03 -.204E+02 -.609E+03   0.135E+03 0.204E+02 0.610E+03   -.637E+00 0.105E+00 0.428E+00   -.681E+00 -.108E+00 -.103E+01
   0.706E+02 -.404E+02 0.832E+03   -.713E+02 0.412E+02 -.831E+03   0.219E+00 0.167E+00 -.241E+00   0.329E+00 -.838E+00 -.632E+00
   0.696E+02 -.390E+02 -.529E+03   -.703E+02 0.397E+02 0.529E+03   0.607E+00 0.183E+00 0.937E+00   0.106E+00 -.826E+00 -.920E+00
   0.268E+01 -.554E+01 0.225E+04   -.258E+01 0.531E+01 -.224E+04   -.368E-01 0.941E-01 -.279E+01   -.233E-01 0.663E-02 0.353E+00
   0.451E+01 0.527E+01 -.194E+04   -.455E+01 -.506E+01 0.194E+04   0.230E+00 -.707E-01 0.429E+01   -.160E+00 -.953E-01 -.332E+00
   0.430E+02 -.654E+01 0.226E+04   -.433E+02 0.616E+01 -.226E+04   0.149E+00 -.172E+00 -.255E+01   0.133E+00 0.292E+00 0.477E+00
   0.222E+02 -.667E+01 -.204E+04   -.222E+02 0.733E+01 0.203E+04   -.775E-01 -.340E+00 0.410E+01   0.143E+00 -.319E+00 -.593E+00
   -.110E+03 0.486E+02 0.784E+03   0.111E+03 -.484E+02 -.784E+03   -.213E+00 0.155E+00 -.239E+00   -.742E+00 -.449E+00 -.483E+00
   -.323E+01 0.389E+02 0.795E+03   0.349E+01 -.389E+02 -.795E+03   0.481E-01 0.149E+00 0.340E-01   -.289E+00 -.297E+00 -.100E+01
   0.560E+01 0.502E+02 -.539E+03   -.458E+01 -.497E+02 0.540E+03   -.115E+00 -.376E-01 -.745E+00   -.903E+00 -.436E+00 -.624E+00
   -.740E+02 0.219E+02 0.221E+04   0.748E+02 -.217E+02 -.221E+04   -.340E+00 0.167E+00 -.279E+01   -.332E+00 -.263E+00 0.465E+00
   -.127E+03 -.321E+01 -.198E+04   0.128E+03 0.374E+01 0.198E+04   -.781E+00 -.417E+00 0.115E+01   -.480E+00 -.830E-01 -.159E+00
   0.183E+02 0.519E+01 -.561E+03   -.190E+02 -.362E+01 0.561E+03   0.266E+00 -.733E+00 0.382E+00   0.345E+00 -.822E+00 -.649E+00
   0.697E+02 -.539E+02 -.615E+03   -.705E+02 0.546E+02 0.616E+03   -.221E+00 0.441E-02 -.742E+00   0.965E+00 -.732E+00 -.889E+00
   0.541E+02 -.208E+01 0.226E+04   -.546E+02 0.235E+01 -.226E+04   0.230E+00 0.179E+00 -.283E+01   0.366E+00 -.374E+00 0.207E+00
   -.870E+02 -.354E+02 -.199E+04   0.875E+02 0.359E+02 0.199E+04   -.913E+00 0.743E-01 0.199E+01   0.437E+00 -.501E+00 0.654E-01
   0.491E+02 -.318E+02 -.576E+03   -.496E+02 0.321E+02 0.576E+03   -.129E-01 -.356E+00 0.341E+00   0.491E+00 0.311E-01 -.667E+00
   -.428E+02 0.267E+02 -.557E+03   0.434E+02 -.272E+02 0.557E+03   0.665E-01 -.410E-01 0.813E+00   -.557E+00 0.517E+00 -.450E+00
   -.105E+02 0.369E+02 -.557E+03   0.116E+02 -.385E+02 0.557E+03   -.566E+00 0.554E+00 0.289E+00   -.617E+00 0.101E+01 -.369E+00
   -.385E+00 -.249E+01 -.588E+03   -.785E+00 0.155E+01 0.588E+03   0.569E+00 0.379E+00 0.355E+00   0.636E+00 0.589E+00 -.614E+00
   0.183E+01 0.482E+01 0.221E+04   -.215E+01 -.465E+01 -.221E+04   -.174E+00 0.172E-01 -.280E+01   0.219E+00 -.466E-01 -.218E+00
   0.199E+01 0.535E+01 -.188E+04   -.106E+01 -.530E+01 0.188E+04   -.830E+00 -.327E+00 -.115E+01   -.949E-01 0.285E+00 0.599E+00
   -.397E+02 -.646E+02 -.195E+04   0.398E+02 0.626E+02 0.198E+04   -.193E+00 0.203E+01 -.253E+02   0.115E+00 -.871E-01 0.106E+00
   0.449E+01 0.415E+02 -.200E+04   -.711E+01 -.417E+02 0.203E+04   0.260E+01 0.490E+00 -.278E+02   0.698E-02 -.357E+00 0.156E+00
   -.418E+02 -.832E+01 -.202E+04   0.402E+02 0.836E+01 0.205E+04   0.165E+01 0.330E-01 -.267E+02   -.915E-01 -.925E-01 -.221E+00
   0.308E+02 -.185E+02 -.204E+04   -.301E+02 0.178E+02 0.207E+04   -.558E+00 0.461E+00 -.282E+02   -.130E+00 0.232E+00 -.179E+00
   0.269E+02 0.255E+02 -.192E+04   -.546E+02 -.456E+02 0.193E+04   0.277E+02 0.201E+02 -.530E+01   -.298E-01 0.715E-01 0.466E+00
   -.570E+02 -.393E+02 -.339E+03   0.631E+02 0.435E+02 0.342E+03   -.611E+01 -.418E+01 -.346E+01   -.157E-02 0.486E-02 0.458E-01
   -.263E+02 -.212E+02 0.141E+03   -.711E-13 -.334E-12 0.296E-11   0.262E+02 0.210E+02 -.122E+03   0.991E-01 0.182E+00 -.195E+02

 POSITION                                       TOTAL-FORCE (eV/Angst)
     10.08740      0.00562      4.04934        -0.025721      0.036513     -0.253776
     -2.53339      8.73512      4.08190        -0.031168      0.007806     -0.071442
      5.03058      0.01686      4.07661         0.057695     -0.136252     -0.129950
      8.81557      2.19268      4.07950        -0.085025     -0.055146     -0.166163
      1.26036      2.17683      4.06343        -0.196803     -0.055265     -0.064686
      2.52334      1.43996      6.10543        -0.009339     -0.008913      0.024632
      6.28789      2.21111      4.10570         0.141122     -0.054033     -0.314011
      3.80181      0.73423      2.00037         0.110823      0.001128      0.464101
      3.77296      0.74908      8.12225         0.015201     -0.010420      0.006235
      7.55692      1.45470      6.15314         0.031266     -0.023505      0.011629
      6.31884      0.74108      2.03384         0.019715     -0.059469      0.438228
      6.29953      0.75885      8.15292         0.004151      0.006760     -0.009122
      7.57051      4.36576      4.10283         0.020386      0.105736     -0.434310
      5.03817      4.36229      4.08171        -0.046054     -0.005539     -0.190093
      3.77927      3.66238      6.08638         0.006969      0.037343     -0.013121
      2.55462      2.91604      2.00083         0.066724      0.124198      0.370764
      2.52014      2.88373      8.10114        -0.008880      0.021198      0.023575
      6.28216      3.64071      6.10900         0.013585      0.009720      0.025616
      7.58585      2.93043      2.03371         0.125642      0.019563      0.418793
      7.55236      2.90389      8.17257         0.011664     -0.002085     -0.004425
      6.29425      6.55133      4.09263         0.017597     -0.042523     -0.193200
     -2.52626      5.82341      6.09880         0.032396      0.000413      0.031919
      3.81389      6.57546      4.07284        -0.247878     -0.060255     -0.063815
      1.26871      5.10416      2.04534        -0.006313      0.093424      0.263278
      1.22348      5.08248      8.13882        -0.004784     -0.019208     -0.046658
      6.29450      5.11374      2.02823        -0.016748      0.092056      0.397809
      6.22814      5.12499      8.16362        -0.007673      0.002349      0.007782
     -2.53139      7.30304      2.00991         0.036281     -0.136089      0.317957
     -2.55941      7.31547      8.01641         0.015823      0.007307     -0.005318
      0.00464      7.28975      2.05722         0.039789      0.058391      0.291639
     -0.02781      7.27864      8.18349        -0.005053      0.006900     -0.037280
      5.08583      7.28318      2.02757        -0.170253      0.037591      0.343309
      5.03956      7.29682      8.08914        -0.009852      0.035464     -0.002027
      7.54405      0.03969      4.10439         0.140026     -0.098108     -0.293230
     -0.03879      1.40587      6.04549        -0.026493     -0.010778      0.035452
      3.74186      2.14689      4.07389        -0.092672      0.061698     -0.425353
      1.31001      0.72945      2.02674        -0.005773     -0.005753      0.255378
      1.33917      0.75024      8.16105         0.007892      0.011993     -0.033740
      5.08007      1.45779      6.06839         0.011529     -0.041920      0.006359
      8.82791      0.75063      2.00000        -0.031570     -0.098240      0.111701
      8.78672      0.76680      8.14953        -0.007483      0.031614     -0.048178
     -0.02406      4.34464      4.11684         0.054575      0.219966     -0.282970
     -1.33556      3.65372      6.10571         0.002423      0.009262      0.011731
      2.55702      4.37025      4.05869        -0.102836      0.125830     -0.238656
      1.29026      3.64501      6.06572        -0.002525      0.051436      0.042694
      0.02215      2.94990      2.02984         0.035883     -0.137298      0.023370
     -0.01496      2.89954      8.00639         0.021394      0.035741     -0.012343
      5.09719      2.93887      2.04043        -0.079973     -0.246314      0.026085
      5.03280      2.93653      8.05280         0.004366      0.011915      0.010718
     -1.32764      6.58396      4.11125         0.082195     -0.103575     -0.342583
      1.24700      6.55932      4.09363         0.026774     -0.105544     -0.397345
      0.11814      5.88363      6.13593         0.016645      0.005514      0.002273
     -1.29718      5.12819      2.06865         0.118207      0.091321      0.187505
     -1.25892      5.16190      8.17715         0.025766      0.031300     -0.037907
      2.50444      5.87926      6.11757        -0.033918      0.025140      0.053971
      5.03092      5.78441      6.12496        -0.032208      0.014317      0.007335
      3.79261      5.11061      2.02334         0.037277      0.070543     -0.036576
      3.77533      5.13403      8.26361         0.052218      0.004763     -0.026668
     -3.80351      8.01499      6.05238        -0.035524      0.001587      0.020221
     -1.24473      7.99611      6.11745         0.055303     -0.034918      0.014863
      1.29420      7.96190      6.13264        -0.005931     -0.045148      0.035584
      3.68429      7.96243      6.11035         0.030466      0.024436      0.018712
      2.54183      7.29082      2.05307        -0.260515      0.144944      0.012994
      2.51401      7.28760      8.29261         0.009338      0.001339     -0.010533
      0.00575      0.10821      9.26312         0.046633     -0.037886      0.023444
      2.50772      4.30274      9.29118        -0.003265     -0.021675     -0.040778
     -2.52029      4.40910      9.26961        -0.017185     -0.019743     -0.012116
      5.01623      0.03721      9.27025         0.011273     -0.004872     -0.058798
      2.70284      7.25391     10.07862         0.030846      0.016419     -0.031457
      3.43806      7.75866     10.47882         0.021558     -0.014466     -0.009025
    total drift:                                0.004590      0.004024     -0.010694

  FREE ENERGIE OF THE ION-ELECTRON SYSTEM (eV)
  free  energy   TOTEN  =      -470.32130597 eV

  energy  without entropy=     -470.32130597  energy(sigma->0) =     -470.32130597

 stress matrix after NEB project (eV)
    -37.39356     -1.22949      1.16325
     -1.22949    -40.77456      0.30785
      1.16325      0.30785    -14.09945
  FORCES: max atom, RMS     0.068522    0.031261
  FORCE total and by dimension    0.261551    0.058798
  Stress total and by dimension   57.145049   40.774561

 total charge

[...]

 magnetization (x)

# of ion       s       p       d       tot
    1       -0.015  -0.041   0.640   0.584
    2       -0.020  -0.042   0.675   0.613
    3       -0.019  -0.037   0.653   0.597
    4       -0.023  -0.046   0.724   0.655
    5       -0.026  -0.054   0.696   0.616
    6       -0.019  -0.047   0.636   0.571
    7       -0.019  -0.038   0.682   0.625
    8       -0.019  -0.033   0.700   0.648
    9       -0.016  -0.023   0.533   0.494
   10       -0.010  -0.025   0.370   0.335
   11       -0.016  -0.031   0.683   0.636
   12       -0.013  -0.020   0.373   0.340
   13       -0.018  -0.040   0.734   0.676
   14       -0.022  -0.045   0.712   0.645
   15       -0.023  -0.052   0.684   0.609
   16       -0.029  -0.050   0.720   0.640
   17       -0.015  -0.025   0.497   0.457
   18       -0.015  -0.040   0.696   0.641
   19       -0.022  -0.035   0.661   0.605
   20       -0.013  -0.020   0.515   0.482
   21       -0.016  -0.031   0.712   0.665
   22       -0.018  -0.045   0.691   0.628
   23       -0.013  -0.036   0.451   0.402
   24       -0.027  -0.043   0.731   0.661
   25       -0.010  -0.014   0.348   0.324
   26       -0.020  -0.030   0.660   0.610
   27       -0.014  -0.026   0.524   0.484
   28       -0.016  -0.028   0.679   0.636
   29       -0.024  -0.018   0.747   0.705
   30       -0.018  -0.032   0.678   0.628
   31       -0.007  -0.008   0.359   0.344
   32       -0.019  -0.038   0.708   0.650
   33       -0.017  -0.030   0.316   0.270
   34        0.011  -0.010   2.537   2.537
   35       -0.003  -0.034   2.619   2.582
   36        0.003  -0.019   2.726   2.710
   37        0.010  -0.012   2.894   2.891
   38        0.009   0.003   2.679   2.692
   39        0.006  -0.016   2.647   2.637
   40        0.006  -0.015   2.831   2.822
   41        0.013   0.004   2.477   2.494
   42       -0.008  -0.037   2.448   2.403
   43       -0.000  -0.028   2.642   2.615
   44        0.001  -0.016   2.597   2.582
   45        0.005  -0.018   2.556   2.542
   46        0.008  -0.020   2.827   2.815
   47       -0.008  -0.010   2.811   2.793
   48        0.014  -0.011   2.909   2.913
   49        0.007   0.001   2.935   2.943
   50        0.001  -0.017   2.601   2.585
   51        0.008  -0.004   2.432   2.435
   52       -0.022  -0.040  -1.373  -1.435
   53        0.007  -0.010   2.837   2.835
   54        0.017   0.014   2.689   2.720
   55       -0.026  -0.040  -1.926  -1.993
   56        0.015  -0.002   2.577   2.590
   57        0.012  -0.008   2.819   2.823
   58        0.014   0.004   2.543   2.561
   59        0.004  -0.017   2.682   2.669
   60        0.011  -0.008   2.629   2.632
   61       -0.024  -0.030  -2.021  -2.076
   62       -0.029  -0.048  -2.117  -2.195
   63        0.009  -0.009   2.805   2.804
   64        0.014   0.031   2.601   2.646
   65        0.003   0.092   0.000   0.095
   66        0.003   0.080   0.000   0.083
   67        0.003   0.095   0.000   0.097
   68        0.002   0.072   0.000   0.074
   69        0.006   0.174   0.000   0.180
   70        0.007   0.003   0.000   0.010
tot         -0.485  -1.031  85.099  83.584

 BZINTS: Fermi energy: -0.012435;609.000000 electrons
         Band energy:***********;  BLOECHL correction: -0.009979