 vasp.5.4.4.18Apr17-6-g9f103f2a35 (build Dec 15 2018 21:27:11) complex

 executed on             LinuxIFC date 2022.02.28  22:39:12

 INCAR:
 POTCAR:    PAW_PBE Ni 02Aug2007
 POTCAR:    PAW_PBE Fe 06Sep2000
 POTCAR:    PAW_PBE O 08Apr2002

 POTCAR:    PAW_PBE Ni 02Aug2007
   VRHFIN =Ni:

   TITEL  = PAW_PBE Ni 02Aug2007
   POMASS =   58.690; ZVAL   =   10.000    mass and valenz
   ENMAX  =  269.532; ENMIN  =  202.149 eV

 POTCAR:    PAW_PBE Fe 06Sep2000
   VRHFIN =Fe:  d7 s1

   TITEL  = PAW_PBE Fe 06Sep2000
   POMASS =   55.847; ZVAL   =    8.000    mass and valenz
   ENMAX  =  267.882; ENMIN  =  200.911 eV

 POTCAR:    PAW_PBE O 08Apr2002
   VRHFIN =O: s2p4

   TITEL  = PAW_PBE O 08Apr2002
   POMASS =   16.000; ZVAL   =    6.000    mass and valenz
   ENMAX  =  400.000; ENMIN  =  300.000 eV

 Optimization of the real space projectors (new method)

 maximal supplied QI-value         = 16.25
 optimisation between [QCUT,QGAM] = [ 11.54, 23.24] = [ 37.28,151.24] Ry
 Optimized for a Real-space Cutoff    1.45 Angstroem

   l    n(q)    QCUT    max X(q) W(low)/X(q) W(high)/X(q)  e(spline)
   2      9    11.539    60.317    0.19E-03    0.47E-04    0.16E-06
   2      9    11.539    55.921    0.19E-03    0.48E-04    0.16E-06
   0     10    11.539    51.690    0.80E-04    0.50E-04    0.24E-06
   0     10    11.539    30.015    0.73E-04    0.45E-04    0.22E-06
   1     10    11.539    18.849    0.87E-04    0.16E-03    0.71E-07
   1     10    11.539    14.624    0.73E-04    0.13E-03    0.64E-07
 Optimization of the real space projectors (new method)

[...]

   l    n(q)    QCUT    max X(q) W(low)/X(q) W(high)/X(q)  e(spline)
   2     10    11.539    80.901    0.11E-03    0.14E-03    0.21E-06
   2     10    11.539    75.754    0.11E-03    0.14E-03    0.22E-06
   0     11    11.539    58.752    0.52E-04    0.18E-04    0.33E-06
   0     11    11.539    30.679    0.44E-04    0.16E-04    0.30E-06
   1     10    11.539    17.977    0.53E-04    0.29E-04    0.13E-06
   1     10    11.539    13.559    0.44E-04    0.25E-04    0.11E-06
 Optimization of the real space projectors (new method)

 maximal supplied QI-value         = 24.76
 optimisation between [QCUT,QGAM] = [ 11.64, 23.27] = [ 37.91,151.63] Ry
 Optimized for a Real-space Cutoff    1.14 Angstroem

   l    n(q)    QCUT    max X(q) W(low)/X(q) W(high)/X(q)  e(spline)
   0      8    11.635    20.381    0.10E-03    0.33E-03    0.24E-06
   0      8    11.635    15.268    0.11E-03    0.35E-03    0.26E-06
   1      7    11.635     5.964    0.24E-03    0.31E-03    0.30E-06
   1      7    11.635     5.382    0.22E-03    0.25E-03    0.26E-06
  PAW_PBE Ni 02Aug2007                  :
  PAW_PBE Fe 06Sep2000                  :
  PAW_PBE O 08Apr2002                   :

 POSCAR: POSCAR
  positions in direct lattice
  velocities in cartesian coordinates
 exchange correlation table for  LEXCH =        8
   RHO(1)=    0.500       N(1)  =     2000
   RHO(2)=  100.500       N(2)  =     4000

 VTST: version 3.2, (02/03/18)

 CHAIN: initializing optimizer

 OPT: Using VASP Dynamics algorithm
 CHAIN: Read ICHAIN            0

 POSCAR: POSCAR
  positions in direct lattice
  velocities in cartesian coordinates

 ion  position               nearest neighbor table
   1  0.999  0.000  0.288-  47 2.47  18 2.48  50 2.48   8 2.49   5 2.49  41 2.49  49 2.49  33 2.50
                             2 2.51  26 2.51   4 2.51   6 2.53
   2  0.249  0.001  0.285-  11 2.45  51 2.46  44 2.46  50 2.47  26 2.49   9 2.50   1 2.51   6 2.51
                             3 2.51  27 2.52  41 2.55  43 2.55
   3  0.499  1.000  0.288-  43 2.47  64 2.47  14 2.47  51 2.47  17 2.48  45 2.50   4 2.50  27 2.50
                             9 2.51   2 2.51  30 2.52  12 2.52
   4  0.748  0.999  0.287-  16 2.43  48 2.46  17 2.46  18 2.48  30 2.49   3 2.50  64 2.51   1 2.51
                            33 2.51   5 2.51  12 2.53  47 2.54
   5  0.999  0.249  0.287-  60 2.43  16 2.43  22 2.48  18 2.48   1 2.49  52 2.50   6 2.51   4 2.51
                            12 2.51  19 2.52  21 2.52   8 2.54
   6  0.251  0.252  0.288-  11 2.42  56 2.47  52 2.48  22 2.49   9 2.50   5 2.51   2 2.51  50 2.52
                             1 2.53  53 2.53   8 2.55  55 2.55
   7  0.083  0.166  0.096-  50 2.47  15 2.50  40 2.50  18 2.50  54 2.50  10 2.50  46 2.51  22 2.51
                            20 2.51
   8  0.080  0.161  0.385-  67 1.86  47 2.42  41 2.44   1 2.49  16 2.50  11 2.50   5 2.54   6 2.55
                            21 2.58  55 2.58
   9  0.499  0.250  0.287-  11 2.44  59 2.44  56 2.46   6 2.50   2 2.50  53 2.50  51 2.51   3 2.51
                            12 2.51  23 2.52  14 2.54  25 2.56
  10  0.333  0.167  0.096-  13 2.50  56 2.50   7 2.50  24 2.51  40 2.51  42 2.51  50 2.51  54 2.52
                            51 2.52
  11  0.332  0.167  0.379-   6 2.42   9 2.44   2 2.45  55 2.49   8 2.50  41 2.51  25 2.51  14 2.52
                            43 2.52
  12  0.750  0.252  0.288-  16 2.43  59 2.45  60 2.46  58 2.49  23 2.49  17 2.50   9 2.51  19 2.51
                             5 2.51  14 2.52   3 2.52   4 2.53
  13  0.582  0.167  0.097-  51 2.48  24 2.49  42 2.50  17 2.50  10 2.50  63 2.52  59 2.52  57 2.52
                            15 2.53
  14  0.579  0.160  0.384-  65 1.86  43 2.43  64 2.44   3 2.47  11 2.52  16 2.52  12 2.52   9 2.54
                            58 2.59  25 2.59
  15  0.834  0.167  0.096-  20 2.49  60 2.49  18 2.49  46 2.49   7 2.50  17 2.51  63 2.51  57 2.53
                            13 2.53
  16  0.832  0.164  0.379-  12 2.43   4 2.43   5 2.43  64 2.49  47 2.50   8 2.50  21 2.51  14 2.52
                            58 2.53
  17  0.666  0.083  0.193-   4 2.46  60 2.47  51 2.48   3 2.48  59 2.49  13 2.50  12 2.50  45 2.50
                            48 2.51  15 2.51  63 2.51  18 2.52
  18  0.916  0.082  0.192-  50 2.46  60 2.47   1 2.48   4 2.48  46 2.48   5 2.48  15 2.49  49 2.50
                            48 2.50   7 2.50  22 2.51  17 2.52
  19  0.002  0.501  0.286-  60 2.48  52 2.49  27 2.49  29 2.49  39 2.49  21 2.50  58 2.51  12 2.51
                            23 2.52  61 2.52   5 2.52  26 2.52
  20  0.081  0.416  0.096-  61 2.48  15 2.49  57 2.49  22 2.50  54 2.51  28 2.51   7 2.51  31 2.52
                            60 2.53
  21  0.080  0.418  0.384-  67 1.86  58 2.44  29 2.45  19 2.50  52 2.51  16 2.51  32 2.52   5 2.52
                             8 2.58  55 2.59
  22  0.166  0.334  0.192-   5 2.48  52 2.48   6 2.49  60 2.49  54 2.49  36 2.50  20 2.50  50 2.50
                             7 2.51  18 2.51  56 2.52  61 2.54
  23  0.751  0.501  0.286-  38 2.43  59 2.44  53 2.47  39 2.48  12 2.49  33 2.50  26 2.51  19 2.52
                            62 2.52   9 2.52  58 2.53  25 2.57
  24  0.584  0.416  0.096-  13 2.49  62 2.49  57 2.50  10 2.51  56 2.51  34 2.51  37 2.52  54 2.53
                            59 2.54
  25  0.581  0.419  0.386-  65 1.88  35 2.42  55 2.43  53 2.46  38 2.51  11 2.51   9 2.56  58 2.57
                            23 2.57  14 2.59
  26  0.001  0.752  0.286-  38 2.44  49 2.46  44 2.47   2 2.49  39 2.50  27 2.50  33 2.50   1 2.51
                            23 2.51  19 2.52  41 2.52  29 2.53
  27  0.250  0.750  0.286-  32 2.46  45 2.46  61 2.47  44 2.48  19 2.49  26 2.50   3 2.50  52 2.51
                            30 2.52   2 2.52  29 2.53  43 2.54
  28  0.084  0.668  0.095-  61 2.47  39 2.50  40 2.50  37 2.50  31 2.50  42 2.50  57 2.51  44 2.51
                            20 2.51
  29  0.082  0.663  0.383-  66 1.84  21 2.45  58 2.46  19 2.49  32 2.50  38 2.51  26 2.53  27 2.53
                            43 2.56  41 2.57
  30  0.501  0.750  0.287-  32 2.43  48 2.47  45 2.48   4 2.49  53 2.50  33 2.50  36 2.51  64 2.51
                             3 2.52  52 2.52  27 2.52  35 2.55
  31  0.333  0.667  0.094-  61 2.47  42 2.50  54 2.50  28 2.50  63 2.50  34 2.51  36 2.52  45 2.52
                            20 2.52
  32  0.333  0.666  0.379-  52 2.42  30 2.43  27 2.46  29 2.50  64 2.51  35 2.52  21 2.52  43 2.52
                            55 2.52
  33  0.751  0.750  0.286-  38 2.44  49 2.46  53 2.47  48 2.47  62 2.47  23 2.50  26 2.50  30 2.50
                             1 2.50   4 2.51  47 2.54  35 2.57
  34  0.583  0.667  0.095-  62 2.47  36 2.50  63 2.50  46 2.51  31 2.51  37 2.51  54 2.51  24 2.51
                            48 2.53
  35  0.581  0.661  0.385-  68 1.87  25 2.42  55 2.44  53 2.46  38 2.51  32 2.52  30 2.55  33 2.57
                            64 2.57  47 2.58
  36  0.417  0.582  0.191-  54 2.47  22 2.50  34 2.50  62 2.50  30 2.51  45 2.51  56 2.51  48 2.51
                            61 2.51  31 2.52  52 2.52  53 2.55
  37  0.834  0.668  0.095-  62 2.47  40 2.50  57 2.50  39 2.50  28 2.50  46 2.51  49 2.51  34 2.51
                            24 2.52
  38  0.834  0.666  0.379-  23 2.43  26 2.44  33 2.44  58 2.50  25 2.51  29 2.51  41 2.51  35 2.51
                            47 2.51
  39  0.917  0.583  0.191-  23 2.48  57 2.49  19 2.49  28 2.50  37 2.50  26 2.50  61 2.50  49 2.51
                            59 2.51  62 2.51  44 2.51  60 2.56
  40  0.083  0.917  0.095-  50 2.49  44 2.49  37 2.50  28 2.50   7 2.50  10 2.51  49 2.51  46 2.51
                            42 2.52
  41  0.081  0.919  0.384-  66 1.83   8 2.44  47 2.44   1 2.49  11 2.51  38 2.51  26 2.52   2 2.55
                            43 2.56  29 2.57
  42  0.334  0.917  0.095-  51 2.48  13 2.50  63 2.50  31 2.50  44 2.50  28 2.50  10 2.51  45 2.51
                            40 2.52
  43  0.337  0.919  0.384-  66 1.83  14 2.43  64 2.46   3 2.47  32 2.52  11 2.52  27 2.54   2 2.55
                            29 2.56  41 2.56
  44  0.167  0.835  0.191-   2 2.46  51 2.47  26 2.47  27 2.48  61 2.49  49 2.49  40 2.49  42 2.50
                            50 2.50  28 2.51  39 2.51  45 2.53
  45  0.417  0.832  0.192-  27 2.46  61 2.47  51 2.47  30 2.48  48 2.49  63 2.50   3 2.50  17 2.50
                            36 2.51  42 2.51  31 2.52  44 2.53
  46  0.832  0.917  0.096-  18 2.48  48 2.49  15 2.49  63 2.50  49 2.50   7 2.51  34 2.51  37 2.51
                            40 2.51
  47  0.838  0.919  0.384-  68 1.85   8 2.42  41 2.44   1 2.47  16 2.50  38 2.51  33 2.54   4 2.54
                            64 2.57  35 2.58
  48  0.666  0.833  0.192-   4 2.46  62 2.47  33 2.47  30 2.47  45 2.49  46 2.49  18 2.50  63 2.50
                            17 2.51  36 2.51  49 2.52  34 2.53
  49  0.917  0.833  0.192-  26 2.46  33 2.46  62 2.46  50 2.47   1 2.49  44 2.49  18 2.50  46 2.50
                            39 2.51  40 2.51  37 2.51  48 2.52
  50  0.162  0.082  0.191-  18 2.46   7 2.47   2 2.47  49 2.47   1 2.48  40 2.49  44 2.50  22 2.50
                            10 2.51   6 2.52  56 2.53  51 2.57
  51  0.416  0.078  0.192-   2 2.46  44 2.47  45 2.47   3 2.47  42 2.48  17 2.48  13 2.48   9 2.51
                            10 2.52  59 2.54  56 2.54  50 2.57
  52  0.249  0.499  0.288-  32 2.42   6 2.48  22 2.48  19 2.49   5 2.50  21 2.51  27 2.51  36 2.52
                            30 2.52  61 2.55  53 2.55  55 2.57
  53  0.506  0.503  0.290-  35 2.46  25 2.46  33 2.47  23 2.47  30 2.50   9 2.50   6 2.53  55 2.54
[...]
   0.582E+02 -.494E+02 0.298E+04   -.580E+02 0.493E+02 -.298E+04   0.111E+00 -.127E+00 -.891E+00   -.288E+00 0.269E+00 0.212E+01
   0.359E+02 -.266E+02 -.276E+04   -.353E+02 0.267E+02 0.275E+04   0.413E-01 -.818E-02 0.315E+01   -.606E+00 -.118E+00 -.221E+01
   0.518E+02 -.699E+02 0.115E+04   -.511E+02 0.699E+02 -.115E+04   0.340E-01 0.349E-02 -.424E+00   -.618E+00 -.667E-01 0.832E+00
   -.732E+01 -.616E+02 0.113E+04   0.743E+01 0.611E+02 -.113E+04   -.336E-01 0.123E+00 -.234E+00   -.121E+00 0.307E+00 0.489E+00
   -.314E+02 0.352E+02 -.719E+03   0.312E+02 -.345E+02 0.724E+03   -.917E-01 -.757E-01 -.105E+01   0.239E+00 -.520E+00 -.314E+01
   0.118E+02 -.488E+01 0.294E+04   -.121E+02 0.452E+01 -.294E+04   0.114E+00 0.758E-01 -.124E+01   0.160E+00 0.427E+00 0.217E+01
   0.720E+02 -.726E+02 -.269E+04   -.739E+02 0.736E+02 0.269E+04   0.159E+01 -.114E+01 0.726E+00   0.306E+00 0.611E-01 -.191E+01
   -.471E+02 -.622E+02 0.111E+04   0.468E+02 0.618E+02 -.111E+04   -.519E-01 0.154E-02 -.432E+00   0.475E+00 0.372E+00 0.237E+00
   0.503E+02 0.587E+02 -.710E+03   -.499E+02 -.575E+02 0.713E+03   -.101E+00 -.464E-01 0.408E+00   -.360E+00 -.107E+01 -.318E+01
   0.700E+01 0.231E+02 0.290E+04   -.686E+01 -.230E+02 -.290E+04   0.401E-01 0.426E-01 -.150E+01   -.228E+00 -.896E-01 0.231E+01
   0.115E+03 -.511E+02 -.271E+04   -.117E+03 0.527E+02 0.271E+04   0.183E+01 -.105E+01 0.677E+00   0.854E-01 -.528E+00 -.189E+01
   -.125E+02 0.399E+02 -.753E+03   0.122E+02 -.398E+02 0.756E+03   -.113E-02 -.306E-01 0.529E+00   0.277E+00 -.366E-01 -.323E+01
   -.371E+02 0.606E+02 -.728E+03   0.361E+02 -.610E+02 0.731E+03   0.212E-01 0.201E-01 0.436E+00   0.104E+01 0.345E+00 -.300E+01
   -.477E+01 0.647E+02 0.299E+04   0.479E+01 -.646E+02 -.299E+04   0.949E-01 -.114E-01 -.140E+01   0.401E-01 -.169E+00 0.200E+01
   -.612E+01 0.169E+03 -.271E+04   0.550E+01 -.171E+03 0.271E+04   -.114E-01 0.191E+01 0.417E+00   0.614E+00 -.118E+00 -.168E+01
   0.378E+01 0.937E+02 -.795E+03   -.356E+01 -.939E+02 0.797E+03   0.710E-01 -.368E-01 0.603E+00   -.306E+00 0.266E+00 -.292E+01
   -.265E+02 0.337E+02 0.300E+04   0.265E+02 -.337E+02 -.300E+04   -.229E+00 0.584E-03 -.111E+01   0.215E-01 -.133E+00 0.218E+01
   -.448E+02 0.431E+02 -.271E+04   0.446E+02 -.433E+02 0.271E+04   -.178E+00 -.830E-02 0.288E+01   0.371E+00 0.216E+00 -.231E+01
   0.469E+02 0.843E+02 -.749E+03   -.459E+02 -.841E+02 0.752E+03   -.973E-01 -.991E-01 0.392E+00   -.969E+00 -.120E+00 -.298E+01
   0.212E+02 0.518E+02 0.299E+04   -.209E+02 -.515E+02 -.299E+04   0.226E+00 0.390E-01 -.122E+01   -.304E+00 -.420E+00 0.215E+01
   0.470E+02 0.148E+03 -.271E+04   -.465E+02 -.150E+03 0.272E+04   -.579E-01 0.209E+01 0.631E+00   -.445E+00 -.248E-01 -.190E+01
   -.246E+02 0.102E+03 0.110E+04   0.248E+02 -.102E+03 -.110E+04   -.169E+00 0.176E+00 -.561E+00   -.672E-01 -.123E+00 0.324E+00
   0.103E+02 0.785E+02 0.299E+04   -.106E+02 -.781E+02 -.299E+04   -.114E+00 0.365E-01 -.115E+01   0.236E+00 -.426E+00 0.195E+01
   0.592E+01 0.544E+02 -.274E+04   -.546E+01 -.540E+02 0.274E+04   0.668E-01 0.100E+00 0.279E+01   -.543E+00 -.445E+00 -.160E+01
   0.296E+01 0.119E+03 0.117E+04   -.288E+01 -.119E+03 -.117E+04   -.700E-01 0.253E+00 -.345E+00   0.184E-02 -.532E+00 -.294E+00
   -.162E+02 -.318E+02 0.300E+04   0.158E+02 0.318E+02 -.300E+04   0.151E-02 -.268E-01 -.159E+01   0.381E+00 0.708E-01 0.179E+01
   0.900E+02 -.601E+02 -.273E+04   -.919E+02 0.606E+02 0.273E+04   0.172E+01 -.104E+01 0.661E+00   0.124E+00 0.523E+00 -.159E+01
   -.319E+02 -.349E+02 0.299E+04   0.320E+02 0.350E+02 -.299E+04   -.182E+00 -.912E-02 -.127E+01   -.595E-02 -.727E-01 0.213E+01
   -.143E+03 -.540E+02 -.272E+04   0.144E+03 0.545E+02 0.272E+04   -.174E+01 -.107E+01 0.482E+00   0.753E+00 0.543E+00 -.221E+01
   -.292E+02 -.162E+02 0.115E+04   0.287E+02 0.161E+02 -.115E+04   -.203E-01 -.313E-01 -.359E+00   0.511E+00 0.144E+00 -.476E-01
   0.623E+01 0.131E+02 0.114E+04   -.626E+01 -.131E+02 -.114E+04   -.786E-01 -.113E+00 -.362E+00   0.217E+00 0.151E+00 0.589E+00
   0.343E+02 0.306E+01 0.301E+04   -.344E+02 -.276E+01 -.301E+04   0.167E+00 -.810E-01 -.126E+01   0.238E-01 -.235E+00 0.183E+01
   -.536E+02 -.341E+02 -.274E+04   0.558E+02 0.351E+02 0.274E+04   -.177E+01 -.998E+00 0.842E+00   -.420E+00 0.288E-01 -.174E+01
   0.243E+02 0.541E+02 0.114E+04   -.236E+02 -.537E+02 -.115E+04   0.402E-01 -.118E+00 -.357E+00   -.779E+00 -.265E+00 0.587E+00
   -.168E+01 0.236E+02 0.113E+04   0.163E+01 -.234E+02 -.113E+04   0.148E-01 -.508E-01 -.177E+00   0.445E-01 -.150E+00 -.139E+00
   -.638E+02 -.758E+02 0.911E+03   0.635E+02 0.756E+02 -.911E+03   -.132E+00 -.110E+00 -.317E+00   0.445E+00 0.429E+00 0.834E-01
   0.256E+02 -.883E+02 0.913E+03   -.259E+02 0.884E+02 -.913E+03   0.138E+00 -.229E+00 -.364E+00   0.163E+00 0.208E+00 0.553E+00
   -.496E+02 0.134E+02 -.610E+03   0.496E+02 -.134E+02 0.612E+03   -.272E+00 -.693E-01 0.315E+00   0.261E+00 0.148E+00 -.241E+01
   0.430E+02 0.423E+02 -.608E+03   -.428E+02 -.421E+02 0.611E+03   0.543E-01 0.201E-02 -.716E+00   -.168E+00 -.226E+00 -.237E+01
   -.290E+02 0.126E+02 0.236E+04   0.289E+02 -.125E+02 -.236E+04   -.146E-01 -.353E-01 -.266E+01   0.122E+00 -.294E-01 0.177E+01
   -.773E+02 -.706E+02 -.216E+04   0.779E+02 0.710E+02 0.216E+04   -.716E+00 -.561E+00 0.143E+01   0.832E-01 0.114E+00 -.153E+01
   -.239E+02 -.237E+02 0.886E+03   0.241E+02 0.237E+02 -.886E+03   -.281E+00 0.577E-01 -.288E+00   0.642E-01 -.730E-01 0.164E+00
   0.111E+02 0.319E+02 0.236E+04   -.109E+02 -.323E+02 -.236E+04   -.631E-01 0.677E-01 -.295E+01   -.654E-01 0.262E+00 0.176E+01
   -.768E+02 -.446E+02 -.216E+04   0.778E+02 0.456E+02 0.216E+04   -.685E+00 -.398E+00 0.100E+01   -.381E+00 -.552E+00 -.144E+01
   0.366E+02 -.219E+02 0.903E+03   -.364E+02 0.220E+02 -.903E+03   0.132E-01 0.113E+00 -.414E+00   -.161E+00 -.144E+00 0.376E+00
   0.311E+02 -.635E+02 0.902E+03   -.312E+02 0.634E+02 -.903E+03   0.342E+00 -.165E-01 -.228E+00   -.285E+00 0.124E+00 0.211E+00
   -.131E+02 0.697E+02 0.912E+03   0.129E+02 -.696E+02 -.912E+03   0.300E-01 -.649E-01 -.373E+00   0.218E+00 0.907E-02 0.715E-01
   0.279E+02 0.115E+03 0.910E+03   -.279E+02 -.115E+03 -.910E+03   0.217E+00 0.266E+00 -.456E+00   -.174E+00 -.431E+00 0.975E-01
   0.109E+02 -.115E+02 0.241E+04   -.106E+02 0.117E+02 -.241E+04   0.476E-02 0.693E-01 -.272E+01   -.326E+00 -.193E+00 0.175E+01
   0.869E+02 -.283E+02 -.217E+04   -.873E+02 0.288E+02 0.218E+04   0.854E+00 -.529E+00 0.102E+01   -.383E+00 0.491E-01 -.184E+01
   -.256E+02 -.161E+02 -.215E+04   0.243E+02 0.156E+02 0.218E+04   0.141E+01 0.772E+00 -.273E+02   -.128E+00 -.337E+00 -.459E+00
   -.906E+01 0.819E+01 -.220E+04   0.869E+01 -.857E+01 0.222E+04   0.443E-01 0.112E+00 -.280E+02   0.328E+00 0.264E+00 -.108E+00
   -.241E+02 -.304E+02 -.215E+04   0.223E+02 0.295E+02 0.218E+04   0.167E+01 0.798E+00 -.274E+02   0.388E-01 0.775E-01 -.177E+00
   0.387E+02 -.635E+01 -.216E+04   -.373E+02 0.572E+01 0.219E+04   -.123E+01 0.669E+00 -.275E+02   -.109E+00 -.537E-01 -.264E+00
   -.290E+01 -.364E+01 0.160E+03   -.497E-13 0.520E-12 0.318E-11   0.266E+01 0.367E+01 -.118E+03   0.238E+00 -.404E-01 -.416E+02

 POSITION                                       TOTAL-FORCE (eV/Angst)
     10.01425      0.00432      6.09736        -0.002984     -0.008023      0.020672
      2.49303      0.00989      6.04844         0.001006      0.001532      0.012350
     -0.00690      8.68160      6.10198        -0.019858     -0.018905      0.012067
      2.49327      8.67448      6.07405        -0.000993      0.001120      0.040710
      8.77321      2.16109      6.08557         0.000408      0.000007      0.025506
      1.25520      2.19250      6.09258         0.002220      0.014024      0.017561
     -0.00285      1.44433      2.02730        -0.074158      0.012462      0.146869
     -0.00706      1.39571      8.15838         0.004269      0.051506     -0.005617
      3.75309      2.16887      6.07637         0.008295     -0.002224      0.016636
      2.50178      1.44890      2.02869         0.102654     -0.051192      0.166419
      2.49344      1.45181      8.03403        -0.000722      0.012517      0.012927
      6.26031      2.18704      6.11003         0.006681      0.007666     -0.013165
      5.00042      1.45188      2.04906        -0.039235      0.043849      0.174840
      5.00584      1.39162      8.14545         0.009255      0.054198     -0.001748
      7.52680      1.44774      2.04372        -0.023490      0.029936      0.284466
      7.51992      1.42613      8.03928         0.010064     -0.009857      0.037322
      6.25724      0.72120      4.08068         0.030827     -0.051729     -0.196055
      8.77725      0.71231      4.06936        -0.035886     -0.027594     -0.114163
     -2.49094      4.35164      6.07052         0.010732      0.011721      0.012240
     -1.27467      3.61315      2.03306        -0.039226      0.144034      0.184586
     -1.29392      3.62607      8.13687         0.015839     -0.028027      0.000640
     -0.00860      2.89985      4.06991         0.091836      0.006504     -0.173386
      5.02055      4.35036      6.06671        -0.012154      0.018171      0.010418
      3.76492      3.61380      2.03274        -0.045471      0.105863      0.111135
      3.72020      3.64201      8.17174         0.024813      0.005059      0.020620
     -3.75633      6.52725      6.06948        -0.000051      0.011302      0.027920
     -1.25608      6.51183      6.05311         0.019698     -0.002466      0.009870
     -2.50964      5.80144      2.00867         0.145563     -0.104534      0.318755
     -2.49849      5.75844      8.12438        -0.015333     -0.030920     -0.010583
      1.26399      6.50843      6.08300        -0.011623     -0.021570      0.032072
     -0.00666      5.79426      2.00000        -0.134647     -0.092117      0.219556
      0.00076      5.78107      8.03184         0.002178      0.006170      0.006027
      3.76730      6.50911      6.06442        -0.003605     -0.002307      0.009919
      2.50308      5.78909      2.00257         0.194328     -0.098376      0.228831
      2.51205      5.74116      8.16823        -0.006589      0.001932      0.013472
      1.25945      5.05378      4.04326        -0.014754     -0.023675     -0.095452
      5.01445      5.79798      2.01253        -0.221264     -0.049752      0.236466
      5.02078      5.78171      8.03134        -0.009760      0.005211      0.009395
      6.27138      5.06452      4.04277         0.016268     -0.059538     -0.107880
     -3.76517      7.96148      2.01691         0.033484      0.072035      0.246644
     -3.78781      7.97598      8.13602         0.001562     -0.028002     -0.020964
     -1.24654      7.96318      2.02107        -0.031520      0.005082      0.170925
     -1.22788      7.97645      8.12896         0.006174     -0.015495     -0.032209
     -2.51584      7.25277      4.05487        -0.066276     -0.034784     -0.123556
      0.00963      7.22591      4.06957         0.113903      0.001708     -0.187425
      3.74757      7.96401      2.04130         0.106701     -0.012442      0.179796
      3.80064      7.97633      8.14124        -0.050413     -0.017905     -0.018119
      2.50222      7.23652      4.07555        -0.048369      0.002027     -0.187613
      5.01801      7.23500      4.07176         0.013195      0.014140     -0.098286
      1.20950      0.71304      4.05362         0.019935      0.052704     -0.234875
      3.78049      0.67792      4.06351        -0.061671      0.038919     -0.249187
     -0.00362      4.33171      6.09803         0.004484     -0.003856      0.003019
      2.55085      4.36508      6.13535        -0.002530     -0.002767     -0.028959
      1.23098      3.62224      2.02941        -0.009595      0.063870      0.122744
      1.29134      3.62316      8.20674        -0.000844     -0.012125     -0.010203
      2.51334      2.87806      4.07938        -0.026135     -0.005749     -0.138444
      6.26024      3.63306      2.00212         0.011643     -0.033180      0.182749
      6.29049      3.63559      8.13195         0.005674     -0.009441     -0.030440
      5.02463      2.88643      4.11822         0.063401      0.021548     -0.455166
      7.52997      2.83909      4.10996        -0.001685     -0.009693     -0.272829
     -1.25360      5.10876      4.01488         0.055338     -0.009813     -0.297546
      3.75975      5.11705      4.02298        -0.049612      0.029951     -0.282214
      1.25181      7.95850      2.03067        -0.043126      0.086016      0.315010
      1.22933      7.97076      8.12133         0.008726      0.005168     -0.044215
      5.05666      2.88282      9.25222        -0.016767     -0.029472     -0.050986
     -2.50382      7.23729      9.21677        -0.004902      0.003823     -0.065002
     -0.02199      2.88535      9.26959        -0.037933     -0.018913     -0.057556
      2.49304      7.26978      9.24781         0.022022     -0.015329     -0.037308
    total drift:                               -0.000526     -0.002528      0.068301

  FREE ENERGIE OF THE ION-ELECTRON SYSTEM (eV)
  free  energy   TOTEN  =      -419.56227169 eV

  energy  without entropy=     -419.56227169  energy(sigma->0) =     -419.56227169

 stress matrix after NEB project (eV)
    -31.90745      0.55135     -0.02015
      0.55135    -31.35468     -0.47588
     -0.02015     -0.47588    -12.37156
  FORCES: max atom, RMS     0.071480    0.025988
  FORCE total and by dimension    0.214301    0.065002
  Stress total and by dimension   46.425408   31.907451

 total charge

[...]

 magnetization (x)

# of ion       s       p       d       tot
    1       -0.008  -0.026   0.570   0.535
    2       -0.013  -0.031   0.671   0.626
    3       -0.010  -0.028   0.594   0.556
    4       -0.012  -0.033   0.701   0.656
    5       -0.012  -0.032   0.681   0.638
    6       -0.022  -0.045   0.742   0.675
    7       -0.016  -0.032   0.647   0.598
    8       -0.004  -0.014   0.490   0.472
    9       -0.017  -0.037   0.705   0.650
   10       -0.015  -0.036   0.744   0.692
   11       -0.014  -0.019   0.743   0.711
   12       -0.017  -0.039   0.685   0.629
   13       -0.020  -0.038   0.699   0.642
   14       -0.009  -0.020   0.438   0.410
   15       -0.012  -0.036   0.687   0.639
   16       -0.016  -0.020   0.724   0.687
   17       -0.019  -0.039   0.658   0.600
   18       -0.014  -0.031   0.626   0.580
   19       -0.014  -0.035   0.626   0.576
   20       -0.023  -0.035   0.715   0.657
   21       -0.010  -0.020   0.547   0.518
   22       -0.023  -0.052   0.751   0.676
   23       -0.018  -0.041   0.718   0.660
   24       -0.025  -0.036   0.730   0.670
   25       -0.013  -0.025   0.518   0.479
   26       -0.007  -0.027   0.690   0.656
   27       -0.013  -0.032   0.672   0.627
   28       -0.014  -0.031   0.687   0.641
   29       -0.007  -0.017   0.542   0.518
   30       -0.016  -0.039   0.718   0.663
   31       -0.013  -0.035   0.693   0.645
   32       -0.019  -0.025   0.762   0.719
   33       -0.014  -0.032   0.697   0.652
   34       -0.020  -0.037   0.665   0.608
   35       -0.011  -0.024   0.563   0.528
   36       -0.024  -0.049   0.702   0.629
   37       -0.009  -0.031   0.701   0.661
   38       -0.013  -0.020   0.744   0.711
   39       -0.022  -0.045   0.725   0.659
   40       -0.013  -0.026   0.672   0.634
   41       -0.004  -0.011   0.498   0.483
   42       -0.017  -0.029   0.664   0.617
   43       -0.010  -0.015   0.453   0.428
   44       -0.017  -0.036   0.722   0.669
   45       -0.016  -0.040   0.680   0.625
   46       -0.013  -0.028   0.665   0.624
   47       -0.004  -0.011   0.429   0.414
   48       -0.015  -0.039   0.724   0.671
   49       -0.013  -0.031   0.674   0.630
   50        0.004  -0.012   2.776   2.768
   51        0.001  -0.017   2.711   2.695
   52        0.001  -0.021   2.761   2.741
   53        0.003  -0.019   2.665   2.649
   54        0.013  -0.009   2.887   2.891
   55        0.014  -0.000   2.698   2.712
   56       -0.006  -0.033   2.628   2.588
   57        0.011  -0.011   2.892   2.892
   58        0.020   0.008   2.735   2.762
   59       -0.005  -0.029   2.679   2.646
   60        0.002  -0.021   2.730   2.711
   61        0.004  -0.011   2.799   2.793
   62        0.001  -0.015   2.761   2.747
   63        0.018  -0.008   2.932   2.941
   64        0.020   0.008   2.727   2.754
   65        0.002   0.068   0.000   0.070
   66        0.002   0.088   0.000   0.090
   67        0.002   0.081   0.000   0.083
   68        0.002   0.087   0.000   0.089
tot         -0.593  -1.375  73.534  71.566

 BZINTS: Fermi energy:  0.263583;634.000000 electrons
         Band energy:***********;  BLOECHL correction: -0.038236