 vasp.5.4.4.18Apr17-6-g9f103f2a35 (build Dec 15 2018 21:27:54) gamma-only

 executed on             LinuxIFC date 2022.03.01  04:00:22

 INCAR:
 POTCAR:    PAW_PBE Ni 02Aug2007
 POTCAR:    PAW_PBE O 08Apr2002
 POTCAR:    PAW_PBE H 15Jun2001

 POTCAR:    PAW_PBE Ni 02Aug2007
   VRHFIN =Ni:

   TITEL  = PAW_PBE Ni 02Aug2007
   POMASS =   58.690; ZVAL   =   10.000    mass and valenz
   ENMAX  =  269.532; ENMIN  =  202.149 eV

 POTCAR:    PAW_PBE O 08Apr2002
   VRHFIN =O: s2p4

   TITEL  = PAW_PBE O 08Apr2002
   POMASS =   16.000; ZVAL   =    6.000    mass and valenz
   ENMAX  =  400.000; ENMIN  =  300.000 eV

 POTCAR:    PAW_PBE H 15Jun2001
   VRHFIN =H: ultrasoft test

   TITEL  = PAW_PBE H 15Jun2001
   POMASS =    1.000; ZVAL   =    1.000    mass and valenz
   ENMAX  =  250.000; ENMIN  =  200.000 eV

 Optimization of the real space projectors (new method)

 maximal supplied QI-value         = 16.25
 optimisation between [QCUT,QGAM] = [ 11.54, 23.24] = [ 37.28,151.24] Ry
 Optimized for a Real-space Cutoff    1.45 Angstroem

   l    n(q)    QCUT    max X(q) W(low)/X(q) W(high)/X(q)  e(spline)
   2      9    11.539    60.317    0.19E-03    0.47E-04    0.16E-06
   2      9    11.539    55.921    0.19E-03    0.48E-04    0.16E-06
   0     10    11.539    51.690    0.80E-04    0.50E-04    0.24E-06
   0     10    11.539    30.015    0.73E-04    0.45E-04    0.22E-06
   1     10    11.539    18.849    0.87E-04    0.16E-03    0.71E-07
   1     10    11.539    14.624    0.73E-04    0.13E-03    0.64E-07
 Optimization of the real space projectors (new method)

[...]

   l    n(q)    QCUT    max X(q) W(low)/X(q) W(high)/X(q)  e(spline)
   0      8    11.635    20.381    0.10E-03    0.33E-03    0.24E-06
   0      8    11.635    15.268    0.11E-03    0.35E-03    0.26E-06
   1      7    11.635     5.964    0.24E-03    0.31E-03    0.30E-06
   1      7    11.635     5.382    0.22E-03    0.25E-03    0.26E-06
 Optimization of the real space projectors (new method)

 maximal supplied QI-value         = 34.20
 optimisation between [QCUT,QGAM] = [ 11.63, 23.26] = [ 37.87,151.49] Ry
 Optimized for a Real-space Cutoff    1.21 Angstroem

   l    n(q)    QCUT    max X(q) W(low)/X(q) W(high)/X(q)  e(spline)
   0      8    11.629    19.460    0.17E-03    0.34E-03    0.21E-06
   0      8    11.629    12.209    0.16E-03    0.33E-03    0.21E-06
   1      8    11.629     4.655    0.18E-03    0.16E-03    0.26E-06
  PAW_PBE Ni 02Aug2007                  :
  PAW_PBE O 08Apr2002                   :
  PAW_PBE H 15Jun2001                   :

 POSCAR: POSCAR
  positions in direct lattice
  velocities in cartesian coordinates
 exchange correlation table for  LEXCH =        8
   RHO(1)=    0.500       N(1)  =     2000
   RHO(2)=  100.500       N(2)  =     4000

 VTST: version 3.2, (02/03/18)

 CHAIN: initializing optimizer

 OPT: Using VASP Dynamics algorithm
 CHAIN: Read ICHAIN            0

 POSCAR: POSCAR
  positions in direct lattice
  velocities in cartesian coordinates

 ion  position               nearest neighbor table
   1  0.113  0.226  0.095-  15 2.49  19 2.49   3 2.49   5 2.49  13 2.49  17 2.49  21 2.49  49 2.49
                            61 2.49
   2  0.110  0.227  0.382-  65 1.83  14 2.40  18 2.43  20 2.46  62 2.49  22 2.50  24 2.51   6 2.51
                             4 2.52  50 2.57
   3  0.196  0.142  0.191-   4 2.44  24 2.45   8 2.45   5 2.49  49 2.49   1 2.49   7 2.49  15 2.49
                            19 2.49  23 2.49  51 2.49  63 2.49
   4  0.030  0.059  0.285-  62 2.43   3 2.44  63 2.44  15 2.44  24 2.49   8 2.49  16 2.49  64 2.49
                            20 2.49  52 2.50   2 2.52  50 2.53
   5  0.363  0.226  0.095-   3 2.49  23 2.49   7 2.49   9 2.49   1 2.49  21 2.49  25 2.49  49 2.49
                            53 2.49
   6  0.360  0.223  0.386-  65 1.88  69 1.98   2 2.51  50 2.51  54 2.52  22 2.52  26 2.54  28 2.54
                            10 2.54   8 2.55  24 2.55
   7  0.446  0.142  0.191-   8 2.45  12 2.46  28 2.49   9 2.49  53 2.49   5 2.49  11 2.49   3 2.49
                            23 2.49  51 2.49  27 2.49  55 2.49
   8  0.280  0.060  0.286-  54 2.41   3 2.45   7 2.45  51 2.46  24 2.47  28 2.48   4 2.49  52 2.50
                            12 2.50  56 2.51  50 2.51   6 2.55
   9  0.613  0.226  0.095-   7 2.49  27 2.49  11 2.49  13 2.49   5 2.49  25 2.49  29 2.49  53 2.49
                            57 2.49
  10  0.615  0.223  0.386-  68 1.89  69 1.97  14 2.51  58 2.51  54 2.52  30 2.52  32 2.54  28 2.54
                            12 2.54  26 2.54   6 2.54
  11  0.696  0.142  0.191-  16 2.44  12 2.45  32 2.45  13 2.49  57 2.49   9 2.49  15 2.49   7 2.49
                            27 2.49  55 2.49  31 2.49  59 2.49
  12  0.531  0.060  0.286-  54 2.41  11 2.45   7 2.46  55 2.46  32 2.47  28 2.49  16 2.49  60 2.50
                             8 2.50  56 2.51  58 2.52  10 2.54
  13  0.863  0.226  0.095-  11 2.49  31 2.49  15 2.49   9 2.49   1 2.49  29 2.49  17 2.49  57 2.49
                            61 2.49
  14  0.869  0.227  0.382-  68 1.83   2 2.40  18 2.43  20 2.45  62 2.49  30 2.50  10 2.51  32 2.52
                            16 2.52  58 2.57
  15  0.946  0.142  0.191-  16 2.44   4 2.44  20 2.47   1 2.49  61 2.49  13 2.49   3 2.49  11 2.49
                            31 2.49  59 2.49  19 2.49  63 2.49
  16  0.780  0.059  0.285-  62 2.43  15 2.44  59 2.44  11 2.44  32 2.49  12 2.49   4 2.49  64 2.49
                            60 2.50  20 2.50  58 2.52  14 2.52
  17  0.113  0.476  0.095-  31 2.49  35 2.49  19 2.49  21 2.49  29 2.49  13 2.49  33 2.49   1 2.49
                            37 2.49
  18  0.112  0.472  0.382-  67 1.84  14 2.43   2 2.43  20 2.47  30 2.47  22 2.47  40 2.52  36 2.53
                            34 2.54  38 2.54
  19  0.196  0.392  0.191-  40 2.44  20 2.47  24 2.47  21 2.49   1 2.49  17 2.49  31 2.49  23 2.49
                            15 2.49  35 2.49  39 2.49   3 2.49
  20  0.030  0.309  0.286-  14 2.45   2 2.46  19 2.47  15 2.47  18 2.47  31 2.47  40 2.49  36 2.49
                             4 2.49  16 2.50  24 2.50  32 2.50
  21  0.363  0.476  0.095-  19 2.49  39 2.49  23 2.49  25 2.49  17 2.49   5 2.49  37 2.49   1 2.49
                            41 2.49
  22  0.362  0.476  0.377-  40 2.41  44 2.41  24 2.41  18 2.47  38 2.47   2 2.50  42 2.50   6 2.52
                            26 2.52
  23  0.446  0.392  0.191-  24 2.45  44 2.46  25 2.49   5 2.49  21 2.49  27 2.49  19 2.49   3 2.49
                            39 2.49  43 2.49   7 2.49  28 2.50
  24  0.280  0.307  0.286-  22 2.41   3 2.45  23 2.45   8 2.47  19 2.47  28 2.48   4 2.49  20 2.50
                            44 2.50  40 2.51   2 2.51   6 2.55
  25  0.613  0.476  0.095-  23 2.49  43 2.49  27 2.49  29 2.49  21 2.49   9 2.49  41 2.49   5 2.49
                            45 2.49
  26  0.615  0.478  0.386-  66 1.88  69 1.98  42 2.51  46 2.52  30 2.52  22 2.52   6 2.54  28 2.54
                            10 2.54  48 2.55  44 2.55
  27  0.696  0.392  0.191-  48 2.46  32 2.46  28 2.49  29 2.49   9 2.49  25 2.49  23 2.49  31 2.49
                            11 2.49  43 2.49  47 2.49   7 2.49
  28  0.530  0.309  0.288-  44 2.48  24 2.48   8 2.48  48 2.48  12 2.49  32 2.49  27 2.49   7 2.49
                            23 2.50  10 2.54  26 2.54   6 2.54
  29  0.863  0.476  0.095-  27 2.49  47 2.49  31 2.49  25 2.49  17 2.49  13 2.49  33 2.49  45 2.49
                             9 2.49
  30  0.866  0.477  0.376-  36 2.40  32 2.41  48 2.41  18 2.47  34 2.47  46 2.50  14 2.50  10 2.52
                            26 2.52
  31  0.946  0.392  0.191-  36 2.44  32 2.46  20 2.47  17 2.49  13 2.49  29 2.49  27 2.49  19 2.49
                            15 2.49  35 2.49  11 2.49  47 2.49
  32  0.779  0.307  0.286-  30 2.41  11 2.45  27 2.46  31 2.46  12 2.47  28 2.49  16 2.49  20 2.50
                            48 2.50  36 2.51  14 2.52  10 2.54
  33  0.113  0.726  0.095-  47 2.49  51 2.49  35 2.49  37 2.49  45 2.49  29 2.49  49 2.49  17 2.49
                            53 2.49
  34  0.112  0.727  0.382-  67 1.84  46 2.43  50 2.43  52 2.47  54 2.47  30 2.47  56 2.52  36 2.52
                            18 2.54  38 2.54
  35  0.196  0.642  0.191-  36 2.43  56 2.43  40 2.44  37 2.49  17 2.49  33 2.49  47 2.49  39 2.49
                            31 2.49  51 2.49  55 2.49  19 2.49
  36  0.030  0.559  0.284-  30 2.40  35 2.43  31 2.44  47 2.44  52 2.49  20 2.49  56 2.49  40 2.49
                            48 2.51  32 2.51  34 2.52  18 2.53
  37  0.363  0.726  0.095-  35 2.49  55 2.49  39 2.49  41 2.49  33 2.49  21 2.49  53 2.49  17 2.49
                            57 2.49
  38  0.366  0.727  0.382-  67 1.84  58 2.43  42 2.43  60 2.47  54 2.47  22 2.47  40 2.52  56 2.53
                            18 2.54  34 2.54
  39  0.446  0.642  0.191-  40 2.44  60 2.47  44 2.47  41 2.49  21 2.49  37 2.49  35 2.49  43 2.49
                            23 2.49  55 2.49  59 2.49  19 2.49
  40  0.280  0.559  0.284-  22 2.41  39 2.44  19 2.44  35 2.44  20 2.49  60 2.49  56 2.49  36 2.49
                            44 2.51  24 2.51  18 2.52  38 2.52
  41  0.613  0.726  0.095-  39 2.49  59 2.49  43 2.49  45 2.49  37 2.49  25 2.49  57 2.49  21 2.49
                            61 2.49
  42  0.612  0.729  0.382-  66 1.83  58 2.40  38 2.43  60 2.46  62 2.49  22 2.50  44 2.51  26 2.51
                            64 2.52  46 2.57
  43  0.696  0.642  0.191-  64 2.44  44 2.45  48 2.45  45 2.49  25 2.49  41 2.49  39 2.49  47 2.49
                            27 2.49  59 2.49  63 2.49  23 2.49
  44  0.531  0.559  0.286-  22 2.41  43 2.45  23 2.46  48 2.47  39 2.47  28 2.48  64 2.49  60 2.50
                            24 2.50  40 2.51  42 2.51  26 2.55
  45  0.863  0.726  0.095-  43 2.49  63 2.49  47 2.49  41 2.49  33 2.49  29 2.49  49 2.49  61 2.49
                            25 2.49
  46  0.869  0.729  0.382-  66 1.83  50 2.40  34 2.43  52 2.46  62 2.49  30 2.50  48 2.51  26 2.52
                            64 2.53  42 2.57
  47  0.946  0.642  0.191-  36 2.44  48 2.46  52 2.47  33 2.49  29 2.49  45 2.49  43 2.49  35 2.49
                            31 2.49  51 2.49  27 2.49  63 2.49
  48  0.779  0.559  0.286-  30 2.41  43 2.45  27 2.46  47 2.46  44 2.47  28 2.48  64 2.49  52 2.50
                            32 2.50  36 2.51  46 2.51  26 2.55
  49  0.113  0.976  0.095-  63 2.49   3 2.49  51 2.49  61 2.49  53 2.49   1 2.49   5 2.49  33 2.49
                            45 2.49
  50  0.110  0.970  0.382-  65 1.83  46 2.40  34 2.43  52 2.46  62 2.49  54 2.50   8 2.51   6 2.51
                             4 2.53   2 2.57
  51  0.196  0.892  0.191-  56 2.44   8 2.46  52 2.47  53 2.49  33 2.49  49 2.49  55 2.49  63 2.49
                            35 2.49  47 2.49   3 2.49   7 2.49
  52  0.030  0.809  0.286-  46 2.46  50 2.46  51 2.47  47 2.47  34 2.47  63 2.47  56 2.49  36 2.49
                             4 2.50  64 2.50   8 2.50  48 2.50
  53  0.363  0.976  0.095-  51 2.49   7 2.49  55 2.49  49 2.49  57 2.49   5 2.49   9 2.49  33 2.49
                            37 2.49
  54  0.362  0.972  0.376-  56 2.40  12 2.41   8 2.41  38 2.47  34 2.47  50 2.50  58 2.50  10 2.52
                             6 2.52
[...]
     -2.49184      7.70262      4.03457        -0.015106      0.035179     -0.112016
     -3.72987      6.97922      6.04035         0.011400     -0.006728      0.181307
     -1.24593      8.42196      2.00000        -0.000663      0.001642     -0.021377
     -1.23610      8.39305      7.94463        -0.003111     -0.008914      0.207680
      0.00000      7.70262      4.03457         0.029513      0.031332     -0.118540
     -1.24116      6.98029      6.00114        -0.001686     -0.007550      0.022395
      1.24592      8.42196      2.00000        -0.006356      0.000908      0.091123
      1.26377      8.36804      8.06413         0.058996      0.191176      0.068931
      2.49185      7.70262      4.03457        -0.042009     -0.031436     -0.097844
      1.24812      6.97876      6.04022        -0.012200     -0.006396      0.183069
      3.73776      8.42196      2.00000        -0.000984      0.000067     -0.086119
      3.74739      8.41722      7.96621        -0.003060      0.001376      0.155558
      4.98369      7.70262      4.03457         0.055538     -0.031336     -0.098868
      3.74257      6.98050      6.00617        -0.001533      0.016550     -0.019888
      1.13201      1.15197      9.21253         0.110112      0.059367     -0.386986
      3.74812      5.68259      9.21255         0.002144     -0.122557     -0.389745
     -1.23544      5.53999      9.18841        -0.002442      0.002683     -0.380582
      6.36480      1.15165      9.21105        -0.111187      0.061680     -0.387931
      3.76015      2.65589      9.46716        -0.023420      0.011776     -0.700392
      3.79386      2.63917     10.42600         0.009583     -0.004682      0.795983
    total drift:                                0.011233     -0.007951      0.042862

  FREE ENERGIE OF THE ION-ELECTRON SYSTEM (eV)
  free  energy   TOTEN  =      -388.35833654 eV

  energy  without entropy=     -384.30185018  energy(sigma->0) =     -386.33009336

 d Force =-0.2729256E-02[-0.239E-01, 0.184E-01]  d Energy =-0.1959334E-02-0.770E-03
 d Force =-0.1295937E+02[-0.131E+02,-0.129E+02]  d Ewald  =-0.1295811E+02-0.126E-02

 stress matrix after NEB project (eV)
    -47.01323      0.19310     -0.37856
      0.19310    -46.82935      0.18221
     -0.37856      0.18221     -1.59613
  FORCES: max atom, RMS     0.796054    0.126770
  FORCE total and by dimension    1.060631    0.795983
  Stress total and by dimension   66.379266   47.013229
 Finite differences progress:
  Degree of freedom:   6/  6
  Displacement:        2/  2
  Total:              12/ 12

 SECOND DERIVATIVES (NOT SYMMETRIZED)
              69X         69Y         69Z         70X         70Y         70Z
 69X    -7.214788    0.052244   -1.552944    1.536029   -0.003166    1.560674
 69Y    -0.051758   -7.084069    0.677513   -0.001915    1.520200   -0.759676
 69Z    -1.507618    0.718923  -55.861631    1.631208   -0.806927   46.173846
 70X     1.517298   -0.003128    1.584794   -0.811910    0.027649   -1.555065
 70Y    -0.000492    1.507061   -0.781081    0.008121   -0.759879    0.761296
 70Z     1.559359   -0.781202   46.209467   -1.561546    0.760971  -47.000507

 Eigenvectors and eigenvalues of the dynamical matrix

   1 f  =  110.483445 THz   694.187956 2PiTHz 3685.330914 cm-1   456.922963 meV
             X         Y         Z           dx          dy          dz
     -0.000005  1.947959  2.000002            0           0           0
     -0.034683  1.960722  8.064793            0           0           0
      1.245927  1.228619  4.034573            0           0           0
      0.005169  0.507205  6.006169            0           0           0
      2.491840  1.947959  2.000002            0           0           0
      2.478117  1.928956  8.147387            0           0           0
      3.737772  1.228619  4.034573            0           0           0
      2.491221  0.518595  6.026647            0           0           0
      4.983685  1.947959  2.000002            0           0           0
      5.019893  1.927866  8.138736            0           0           0
      6.229617  1.228619  4.034573            0           0           0
      4.994516  0.518186  6.025253            0           0           0
      7.475530  1.947959  2.000002            0           0           0
      7.531734  1.960804  8.064282            0           0           0
      8.721462  1.228619  4.034573            0           0           0
      7.480087  0.507121  6.006261            0           0           0
     -1.245927  4.105960  2.000002            0           0           0
     -1.236175  4.076086  8.069356            0           0           0
      0.000005  3.386620  4.034573            0           0           0
     -1.240496  2.668443  6.040260            0           0           0
      1.245918  4.105960  2.000002            0           0           0
      1.235057  4.113050  7.945823            0           0           0
      2.491850  3.386620  4.034573            0           0           0
      1.258613  2.653993  6.026706            0           0           0
      3.737763  4.105960  2.000002            0           0           0
      3.748108  4.128451  8.146978            0           0           0
      4.983695  3.386620  4.034573            0           0           0
      3.742628  2.664904  6.070056            0           0           0
      6.229608  4.105960  2.000002            0           0           0
      6.260359  4.113186  7.944665            0           0           0
      7.475540  3.386620  4.034573            0           0           0
      6.227757  2.654139  6.025285            0           0           0
     -2.491850  6.263961  2.000002            0           0           0
     -2.503963  6.271863  8.068920            0           0           0
     -1.245918  5.544621  4.034573            0           0           0
     -2.486495  4.823334  6.001166            0           0           0
     -0.000005  6.263961  2.000002            0           0           0
      0.031885  6.272013  8.069136            0           0           0
      1.245927  5.544621  4.034573            0           0           0
      0.004498  4.823141  6.001747            0           0           0
      2.491840  6.263961  2.000002            0           0           0
      2.464229  6.288948  8.064595            0           0           0
      3.737772  5.544621  4.034573            0           0           0
      2.510052  4.821564  6.026667            0           0           0
      4.983685  6.263961  2.000002            0           0           0
      5.031636  6.289895  8.064827            0           0           0
      6.229617  5.544621  4.034573            0           0           0
      4.975781  4.821854  6.026652            0           0           0
     -3.737772  8.421962  2.000002            0           0           0
     -3.735553  8.368812  8.064870            0           0           0
     -2.491840  7.702622  4.034573            0           0           0
     -3.729875  6.979224  6.040346            0           0           0
     -1.245927  8.421962  2.000002            0           0           0
     -1.236104  8.393053  7.944631            0           0           0
      0.000005  7.702622  4.034573            0           0           0
     -1.241160  6.980292  6.001144            0           0           0
      1.245918  8.421962  2.000002            0           0           0
      1.263770  8.368044  8.064132            0           0           0
      2.491850  7.702622  4.034573            0           0           0
      1.248124  6.978765  6.040224            0           0           0
      3.737763  8.421962  2.000002            0           0           0
      3.747388  8.417223  7.966211            0           0           0
      4.983695  7.702622  4.034573            0           0           0
      3.742568  6.980502  6.006168            0           0           0
      1.132009  1.151972  9.212530            0           0           0
      3.748125  5.682589  9.212553            0           0           0
     -1.235436  5.539993  9.188405            0           0           0
      6.364797  1.151652  9.211051            0           0           0
      3.760148  2.655889  9.467156    -0.008361    0.004109   -0.241427
      3.793863  2.639172 10.440999     0.032801   -0.016024    0.969687

[...]

   6 f  =    6.798936 THz    42.718974 2PiTHz  226.788080 cm-1    28.118148 meV
             X         Y         Z           dx          dy          dz
     -0.000005  1.947959  2.000002            0           0           0
     -0.034683  1.960722  8.064793            0           0           0
      1.245927  1.228619  4.034573            0           0           0
      0.005169  0.507205  6.006169            0           0           0
      2.491840  1.947959  2.000002            0           0           0
      2.478117  1.928956  8.147387            0           0           0
      3.737772  1.228619  4.034573            0           0           0
      2.491221  0.518595  6.026647            0           0           0
      4.983685  1.947959  2.000002            0           0           0
      5.019893  1.927866  8.138736            0           0           0
      6.229617  1.228619  4.034573            0           0           0
      4.994516  0.518186  6.025253            0           0           0
      7.475530  1.947959  2.000002            0           0           0
      7.531734  1.960804  8.064282            0           0           0
      8.721462  1.228619  4.034573            0           0           0
      7.480087  0.507121  6.006261            0           0           0
     -1.245927  4.105960  2.000002            0           0           0
     -1.236175  4.076086  8.069356            0           0           0
      0.000005  3.386620  4.034573            0           0           0
     -1.240496  2.668443  6.040260            0           0           0
      1.245918  4.105960  2.000002            0           0           0
      1.235057  4.113050  7.945823            0           0           0
      2.491850  3.386620  4.034573            0           0           0
      1.258613  2.653993  6.026706            0           0           0
      3.737763  4.105960  2.000002            0           0           0
      3.748108  4.128451  8.146978            0           0           0
      4.983695  3.386620  4.034573            0           0           0
      3.742628  2.664904  6.070056            0           0           0
      6.229608  4.105960  2.000002            0           0           0
      6.260359  4.113186  7.944665            0           0           0
      7.475540  3.386620  4.034573            0           0           0
      6.227757  2.654139  6.025285            0           0           0
     -2.491850  6.263961  2.000002            0           0           0
     -2.503963  6.271863  8.068920            0           0           0
     -1.245918  5.544621  4.034573            0           0           0
     -2.486495  4.823334  6.001166            0           0           0
     -0.000005  6.263961  2.000002            0           0           0
      0.031885  6.272013  8.069136            0           0           0
      1.245927  5.544621  4.034573            0           0           0
      0.004498  4.823141  6.001747            0           0           0
      2.491840  6.263961  2.000002            0           0           0
      2.464229  6.288948  8.064595            0           0           0
      3.737772  5.544621  4.034573            0           0           0
      2.510052  4.821564  6.026667            0           0           0
      4.983685  6.263961  2.000002            0           0           0
      5.031636  6.289895  8.064827            0           0           0
      6.229617  5.544621  4.034573            0           0           0
      4.975781  4.821854  6.026652            0           0           0
     -3.737772  8.421962  2.000002            0           0           0
     -3.735553  8.368812  8.064870            0           0           0
     -2.491840  7.702622  4.034573            0           0           0
     -3.729875  6.979224  6.040346            0           0           0
     -1.245927  8.421962  2.000002            0           0           0
     -1.236104  8.393053  7.944631            0           0           0
      0.000005  7.702622  4.034573            0           0           0
     -1.241160  6.980292  6.001144            0           0           0
      1.245918  8.421962  2.000002            0           0           0
      1.263770  8.368044  8.064132            0           0           0
      2.491850  7.702622  4.034573            0           0           0
      1.248124  6.978765  6.040224            0           0           0
      3.737763  8.421962  2.000002            0           0           0
      3.747388  8.417223  7.966211            0           0           0
      4.983695  7.702622  4.034573            0           0           0
      3.742568  6.980502  6.006168            0           0           0
      1.132009  1.151972  9.212530            0           0           0
      3.748125  5.682589  9.212553            0           0           0
     -1.235436  5.539993  9.188405            0           0           0
      6.364797  1.151652  9.211051            0           0           0
      3.760148  2.655889  9.467156    -0.105226   -0.823023    0.017357
      3.793863  2.639172 10.440999    -0.068528   -0.553681    0.000070

 Finite differences POTIM=  1.500000000000000E-002

 total charge

# of ion       s       p       d       tot
    1        0.484   0.358   8.332   9.174
    2        0.495   0.514   8.338   9.347
    3        0.493   0.489   8.340   9.321
    4        0.494   0.488   8.350   9.332
    5        0.484   0.358   8.331   9.173
    6        0.439   0.518   8.339   9.297
    7        0.488   0.483   8.340   9.311
    8        0.493   0.488   8.343   9.325
    9        0.484   0.358   8.331   9.173
   10        0.441   0.523   8.338   9.303
   11        0.493   0.489   8.340   9.321
   12        0.494   0.489   8.343   9.326
   13        0.484   0.358   8.332   9.174
   14        0.495   0.515   8.338   9.348
   15        0.490   0.488   8.343   9.321
   16        0.494   0.488   8.350   9.332
   17        0.485   0.357   8.332   9.174
   18        0.490   0.501   8.337   9.328
   19        0.489   0.487   8.343   9.319
   20        0.502   0.501   8.334   9.337
   21        0.483   0.357   8.332   9.173
   22        0.479   0.362   8.391   9.231
   23        0.488   0.483   8.340   9.311
   24        0.493   0.488   8.343   9.325
   25        0.484   0.358   8.331   9.173
   26        0.439   0.519   8.339   9.297
   27        0.488   0.483   8.340   9.311
   28        0.491   0.477   8.329   9.297
   29        0.483   0.357   8.332   9.173
   30        0.479   0.362   8.391   9.232
   31        0.489   0.487   8.343   9.319
   32        0.494   0.489   8.343   9.326
   33        0.485   0.357   8.332   9.174
   34        0.490   0.501   8.337   9.327
   35        0.494   0.494   8.340   9.327
   36        0.495   0.490   8.349   9.335
   37        0.485   0.357   8.332   9.174
   38        0.490   0.501   8.337   9.328
   39        0.489   0.487   8.343   9.319
   40        0.495   0.490   8.349   9.334
   41        0.484   0.358   8.332   9.174
   42        0.495   0.514   8.338   9.347
   43        0.493   0.489   8.340   9.321
   44        0.493   0.488   8.343   9.325
   45        0.484   0.358   8.332   9.174
   46        0.495   0.514   8.338   9.347
   47        0.489   0.487   8.343   9.319
   48        0.493   0.488   8.343   9.325
   49        0.484   0.358   8.332   9.174
   50        0.495   0.514   8.338   9.347
   51        0.489   0.487   8.343   9.319
   52        0.502   0.501   8.334   9.337
   53        0.483   0.357   8.332   9.173
   54        0.479   0.362   8.391   9.232
   55        0.489   0.487   8.343   9.319
   56        0.495   0.490   8.349   9.335
   57        0.484   0.358   8.332   9.174
   58        0.495   0.515   8.338   9.348
   59        0.490   0.488   8.343   9.321
   60        0.502   0.501   8.334   9.337
   61        0.483   0.357   8.334   9.173
   62        0.470   0.360   8.390   9.219
   63        0.490   0.488   8.342   9.321
   64        0.494   0.488   8.350   9.332
   65        1.583   3.328   0.000   4.912
   66        1.583   3.328   0.000   4.911
   67        1.582   3.330   0.000   4.912
   68        1.583   3.328   0.000   4.911
   69        1.548   3.556   0.000   5.104
   70        0.621   0.131   0.000   0.752
tot         39.675  45.961 533.881 619.517