 vasp.5.4.4.18Apr17-6-g9f103f2a35 (build Dec 15 2018 21:27:11) complex

 executed on             LinuxIFC date 2022.03.12  18:56:33

 INCAR:
 POTCAR:    PAW_PBE Ni 02Aug2007
 POTCAR:    PAW_PBE O 08Apr2002
 POTCAR:    PAW_PBE H 15Jun2001

 POTCAR:    PAW_PBE Ni 02Aug2007
   VRHFIN =Ni:

   TITEL  = PAW_PBE Ni 02Aug2007
   POMASS =   58.690; ZVAL   =   10.000    mass and valenz
   ENMAX  =  269.532; ENMIN  =  202.149 eV

 POTCAR:    PAW_PBE O 08Apr2002
   VRHFIN =O: s2p4

   TITEL  = PAW_PBE O 08Apr2002
   POMASS =   16.000; ZVAL   =    6.000    mass and valenz
   ENMAX  =  400.000; ENMIN  =  300.000 eV

 POTCAR:    PAW_PBE H 15Jun2001
   VRHFIN =H: ultrasoft test

   TITEL  = PAW_PBE H 15Jun2001
   POMASS =    1.000; ZVAL   =    1.000    mass and valenz
   ENMAX  =  250.000; ENMIN  =  200.000 eV

 Optimization of the real space projectors (new method)

 maximal supplied QI-value         = 16.25
 optimisation between [QCUT,QGAM] = [ 11.54, 23.24] = [ 37.28,151.24] Ry
 Optimized for a Real-space Cutoff    1.45 Angstroem

   l    n(q)    QCUT    max X(q) W(low)/X(q) W(high)/X(q)  e(spline)
   2      9    11.539    60.317    0.19E-03    0.47E-04    0.16E-06
   2      9    11.539    55.921    0.19E-03    0.48E-04    0.16E-06
   0     10    11.539    51.690    0.80E-04    0.50E-04    0.24E-06
   0     10    11.539    30.015    0.73E-04    0.45E-04    0.22E-06
   1     10    11.539    18.849    0.87E-04    0.16E-03    0.71E-07
   1     10    11.539    14.624    0.73E-04    0.13E-03    0.64E-07
 Optimization of the real space projectors (new method)

[...]

   l    n(q)    QCUT    max X(q) W(low)/X(q) W(high)/X(q)  e(spline)
   0      8    11.635    20.381    0.10E-03    0.33E-03    0.24E-06
   0      8    11.635    15.268    0.11E-03    0.35E-03    0.26E-06
   1      7    11.635     5.964    0.24E-03    0.31E-03    0.30E-06
   1      7    11.635     5.382    0.22E-03    0.25E-03    0.26E-06
 Optimization of the real space projectors (new method)

 maximal supplied QI-value         = 34.20
 optimisation between [QCUT,QGAM] = [ 11.63, 23.26] = [ 37.87,151.49] Ry
 Optimized for a Real-space Cutoff    1.21 Angstroem

   l    n(q)    QCUT    max X(q) W(low)/X(q) W(high)/X(q)  e(spline)
   0      8    11.629    19.460    0.17E-03    0.34E-03    0.21E-06
   0      8    11.629    12.209    0.16E-03    0.33E-03    0.21E-06
   1      8    11.629     4.655    0.18E-03    0.16E-03    0.26E-06
  PAW_PBE Ni 02Aug2007                  :
  PAW_PBE O 08Apr2002                   :
  PAW_PBE H 15Jun2001                   :

 POSCAR: POSCAR
  positions in direct lattice
  velocities in cartesian coordinates
 exchange correlation table for  LEXCH =        8
   RHO(1)=    0.500       N(1)  =     2000
   RHO(2)=  100.500       N(2)  =     4000

 VTST: version 3.2, (02/03/18)

 CHAIN: initializing optimizer

 OPT: Using VASP Dynamics algorithm
 CHAIN: Read ICHAIN            0

 POSCAR: POSCAR
  positions in direct lattice
  velocities in cartesian coordinates

 ion  position               nearest neighbor table
   1  0.113  0.226  0.095-  15 2.49  19 2.49   3 2.49   5 2.49  13 2.49  17 2.49  21 2.49  49 2.49
                            61 2.49
   2  0.110  0.227  0.382-  65 1.83  14 2.40  18 2.43  20 2.46  62 2.49  22 2.50  24 2.51   6 2.51
                             4 2.52  50 2.57
   3  0.196  0.142  0.191-   4 2.44  24 2.45   8 2.45   5 2.49  49 2.49   1 2.49   7 2.49  15 2.49
                            19 2.49  23 2.49  51 2.49  63 2.49
   4  0.030  0.059  0.285-  62 2.43   3 2.44  63 2.44  15 2.44  24 2.49   8 2.49  16 2.49  64 2.49
                            20 2.49  52 2.50   2 2.52  50 2.53
   5  0.363  0.226  0.095-   3 2.49  23 2.49   7 2.49   9 2.49   1 2.49  21 2.49  25 2.49  49 2.49
                            53 2.49
   6  0.360  0.223  0.386-  65 1.88  69 1.98   2 2.51  50 2.51  54 2.52  22 2.52  26 2.54  28 2.54
                            10 2.54   8 2.55  24 2.55
   7  0.446  0.142  0.191-   8 2.45  12 2.46  28 2.49   9 2.49  53 2.49   5 2.49  11 2.49   3 2.49
                            23 2.49  51 2.49  27 2.49  55 2.49
   8  0.280  0.060  0.286-  54 2.41   3 2.45   7 2.45  51 2.46  24 2.47  28 2.48   4 2.49  52 2.50
                            12 2.50  56 2.51  50 2.51   6 2.55
   9  0.613  0.226  0.095-   7 2.49  27 2.49  11 2.49  13 2.49   5 2.49  25 2.49  29 2.49  53 2.49
                            57 2.49
  10  0.615  0.223  0.386-  68 1.89  69 1.97  14 2.51  58 2.51  54 2.52  30 2.52  32 2.54  28 2.54
                            12 2.54  26 2.54   6 2.54
  11  0.696  0.142  0.191-  16 2.44  12 2.45  32 2.45  13 2.49  57 2.49   9 2.49  15 2.49   7 2.49
                            27 2.49  55 2.49  31 2.49  59 2.49
  12  0.531  0.060  0.286-  54 2.41  11 2.45   7 2.46  55 2.46  32 2.47  28 2.49  16 2.49  60 2.50
                             8 2.50  56 2.51  58 2.52  10 2.54
  13  0.863  0.226  0.095-  11 2.49  31 2.49  15 2.49   9 2.49   1 2.49  29 2.49  17 2.49  57 2.49
                            61 2.49
  14  0.869  0.227  0.382-  68 1.83   2 2.40  18 2.43  20 2.45  62 2.49  30 2.50  10 2.51  32 2.52
                            16 2.52  58 2.57
  15  0.946  0.142  0.191-  16 2.44   4 2.44  20 2.47   1 2.49  61 2.49  13 2.49   3 2.49  11 2.49
                            31 2.49  59 2.49  19 2.49  63 2.49
  16  0.780  0.059  0.285-  62 2.43  15 2.44  59 2.44  11 2.44  32 2.49  12 2.49   4 2.49  64 2.49
                            60 2.50  20 2.50  58 2.52  14 2.52
  17  0.113  0.476  0.095-  31 2.49  35 2.49  19 2.49  21 2.49  29 2.49  13 2.49  33 2.49   1 2.49
                            37 2.49
  18  0.112  0.472  0.382-  67 1.84  14 2.43   2 2.43  20 2.47  30 2.47  22 2.47  40 2.52  36 2.53
                            34 2.54  38 2.54
  19  0.196  0.392  0.191-  40 2.44  20 2.47  24 2.47  21 2.49   1 2.49  17 2.49  31 2.49  23 2.49
                            15 2.49  35 2.49  39 2.49   3 2.49
  20  0.030  0.309  0.286-  14 2.45   2 2.46  19 2.47  15 2.47  18 2.47  31 2.47  40 2.49  36 2.49
                             4 2.49  16 2.50  24 2.50  32 2.50
  21  0.363  0.476  0.095-  19 2.49  39 2.49  23 2.49  25 2.49  17 2.49   5 2.49  37 2.49   1 2.49
                            41 2.49
  22  0.362  0.476  0.377-  40 2.41  44 2.41  24 2.41  18 2.47  38 2.47   2 2.50  42 2.50   6 2.52
                            26 2.52
  23  0.446  0.392  0.191-  24 2.45  44 2.46  25 2.49   5 2.49  21 2.49  27 2.49  19 2.49   3 2.49
                            39 2.49  43 2.49   7 2.49  28 2.50
  24  0.280  0.307  0.286-  22 2.41   3 2.45  23 2.45   8 2.47  19 2.47  28 2.48   4 2.49  20 2.50
                            44 2.50  40 2.51   2 2.51   6 2.55
  25  0.613  0.476  0.095-  23 2.49  43 2.49  27 2.49  29 2.49  21 2.49   9 2.49  41 2.49   5 2.49
                            45 2.49
  26  0.615  0.478  0.386-  66 1.88  69 1.98  42 2.51  46 2.52  30 2.52  22 2.52   6 2.54  28 2.54
                            10 2.54  48 2.55  44 2.55
  27  0.696  0.392  0.191-  48 2.46  32 2.46  28 2.49  29 2.49   9 2.49  25 2.49  23 2.49  31 2.49
                            11 2.49  43 2.49  47 2.49   7 2.49
  28  0.530  0.309  0.288-  44 2.48  24 2.48   8 2.48  48 2.48  12 2.49  32 2.49  27 2.49   7 2.49
                            23 2.50  10 2.54  26 2.54   6 2.54
  29  0.863  0.476  0.095-  27 2.49  47 2.49  31 2.49  25 2.49  17 2.49  13 2.49  33 2.49  45 2.49
                             9 2.49
  30  0.866  0.477  0.376-  36 2.40  32 2.41  48 2.41  18 2.47  34 2.47  46 2.50  14 2.50  10 2.52
                            26 2.52
  31  0.946  0.392  0.191-  36 2.44  32 2.46  20 2.47  17 2.49  13 2.49  29 2.49  27 2.49  19 2.49
                            15 2.49  35 2.49  11 2.49  47 2.49
  32  0.779  0.307  0.286-  30 2.41  11 2.45  27 2.46  31 2.46  12 2.47  28 2.49  16 2.49  20 2.50
                            48 2.50  36 2.51  14 2.52  10 2.54
  33  0.113  0.726  0.095-  47 2.49  51 2.49  35 2.49  37 2.49  45 2.49  29 2.49  49 2.49  17 2.49
                            53 2.49
  34  0.112  0.727  0.382-  67 1.84  46 2.43  50 2.43  52 2.47  54 2.47  30 2.47  56 2.52  36 2.52
                            18 2.54  38 2.54
  35  0.196  0.642  0.191-  36 2.43  56 2.43  40 2.44  37 2.49  17 2.49  33 2.49  47 2.49  39 2.49
                            31 2.49  51 2.49  55 2.49  19 2.49
  36  0.030  0.559  0.284-  30 2.40  35 2.43  31 2.44  47 2.44  52 2.49  20 2.49  56 2.49  40 2.49
                            48 2.51  32 2.51  34 2.52  18 2.53
  37  0.363  0.726  0.095-  35 2.49  55 2.49  39 2.49  41 2.49  33 2.49  21 2.49  53 2.49  17 2.49
                            57 2.49
  38  0.366  0.727  0.382-  67 1.84  58 2.43  42 2.43  60 2.47  54 2.47  22 2.47  40 2.52  56 2.53
                            18 2.54  34 2.54
  39  0.446  0.642  0.191-  40 2.44  60 2.47  44 2.47  41 2.49  21 2.49  37 2.49  35 2.49  43 2.49
                            23 2.49  55 2.49  59 2.49  19 2.49
  40  0.280  0.559  0.284-  22 2.41  39 2.44  19 2.44  35 2.44  20 2.49  60 2.49  56 2.49  36 2.49
                            44 2.51  24 2.51  18 2.52  38 2.52
  41  0.613  0.726  0.095-  39 2.49  59 2.49  43 2.49  45 2.49  37 2.49  25 2.49  57 2.49  21 2.49
                            61 2.49
  42  0.612  0.729  0.382-  66 1.83  58 2.40  38 2.43  60 2.46  62 2.49  22 2.50  44 2.51  26 2.51
                            64 2.52  46 2.57
  43  0.696  0.642  0.191-  64 2.44  44 2.45  48 2.45  45 2.49  25 2.49  41 2.49  39 2.49  47 2.49
                            27 2.49  59 2.49  63 2.49  23 2.49
  44  0.531  0.559  0.286-  22 2.41  43 2.45  23 2.46  48 2.47  39 2.47  28 2.48  64 2.49  60 2.50
                            24 2.50  40 2.51  42 2.51  26 2.55
  45  0.863  0.726  0.095-  43 2.49  63 2.49  47 2.49  41 2.49  33 2.49  29 2.49  49 2.49  61 2.49
                            25 2.49
  46  0.869  0.729  0.382-  66 1.83  50 2.40  34 2.43  52 2.46  62 2.49  30 2.50  48 2.51  26 2.52
                            64 2.53  42 2.57
  47  0.946  0.642  0.191-  36 2.44  48 2.46  52 2.47  33 2.49  29 2.49  45 2.49  43 2.49  35 2.49
                            31 2.49  51 2.49  27 2.49  63 2.49
  48  0.779  0.559  0.286-  30 2.41  43 2.45  27 2.46  47 2.46  44 2.47  28 2.48  64 2.49  52 2.50
                            32 2.50  36 2.51  46 2.51  26 2.55
  49  0.113  0.976  0.095-  63 2.49   3 2.49  51 2.49  61 2.49  53 2.49   1 2.49   5 2.49  33 2.49
                            45 2.49
  50  0.110  0.970  0.382-  65 1.83  46 2.40  34 2.43  52 2.46  62 2.49  54 2.50   8 2.51   6 2.51
                             4 2.53   2 2.57
  51  0.196  0.892  0.191-  56 2.44   8 2.46  52 2.47  53 2.49  33 2.49  49 2.49  55 2.49  63 2.49
                            35 2.49  47 2.49   3 2.49   7 2.49
  52  0.030  0.809  0.286-  46 2.46  50 2.46  51 2.47  47 2.47  34 2.47  63 2.47  56 2.49  36 2.49
                             4 2.50  64 2.50   8 2.50  48 2.50
  53  0.363  0.976  0.095-  51 2.49   7 2.49  55 2.49  49 2.49  57 2.49   5 2.49   9 2.49  33 2.49
                            37 2.49
  54  0.362  0.972  0.376-  56 2.40  12 2.41   8 2.41  38 2.47  34 2.47  50 2.50  58 2.50  10 2.52
                             6 2.52
[...]
   -.511E+00 0.366E+01 0.121E+04   0.820E+00 -.366E+01 -.121E+04   0.810E-01 0.163E-01 -.167E+00   -.357E+00 -.469E-01 -.451E+00
   -.329E+00 -.262E+01 -.834E+03   0.373E+00 0.277E+01 0.836E+03   -.956E-02 0.138E-02 -.120E+01   -.348E-01 -.143E+00 -.843E+00
   -.877E+00 0.486E+00 0.321E+04   0.780E+00 -.453E+00 -.320E+04   -.307E-01 0.170E-01 -.120E+01   0.137E+00 -.565E-01 -.432E+00
   0.257E+02 -.148E+02 -.285E+04   -.261E+02 0.151E+02 0.285E+04   0.311E+00 -.184E+00 0.310E+01   0.157E+00 -.556E-01 -.994E+00
   -.518E+01 0.296E+01 0.121E+04   0.500E+01 -.288E+01 -.121E+04   -.271E-01 0.160E-01 -.120E+00   0.232E+00 -.111E+00 -.834E+00
   0.737E+00 0.108E+01 -.820E+03   -.251E+00 -.908E+00 0.821E+03   -.239E+00 0.276E-01 0.178E+00   -.252E+00 -.178E+00 -.795E+00
   0.542E-01 0.114E+01 0.321E+04   -.404E-01 -.882E+00 -.320E+04   0.142E-02 0.223E-01 -.144E+01   -.157E-01 -.290E+00 -.701E+00
   0.141E+01 0.913E+00 -.279E+04   -.142E+01 0.369E+00 0.279E+04   0.128E-01 -.952E+00 0.100E+01   -.204E-02 -.272E+00 -.491E+00
   0.535E+01 0.290E+01 0.121E+04   -.518E+01 -.276E+01 -.121E+04   0.287E-01 0.112E-01 -.116E+00   -.210E+00 -.158E+00 -.794E+00
   0.767E+00 -.391E+00 -.854E+03   -.846E+00 0.456E+00 0.855E+03   -.167E-01 0.790E-02 -.980E+00   0.941E-01 -.721E-01 -.570E+00
   0.887E+00 0.496E+00 0.321E+04   -.783E+00 -.405E+00 -.320E+04   0.264E-01 0.170E-01 -.120E+01   -.140E+00 -.113E+00 -.423E+00
   -.261E+02 -.153E+02 -.285E+04   0.266E+02 0.157E+02 0.285E+04   -.335E+00 -.199E+00 0.313E+01   -.183E+00 -.192E+00 -.105E+01
   -.601E-01 0.362E+01 0.121E+04   -.210E+00 -.356E+01 -.121E+04   -.771E-01 0.153E-01 -.174E+00   0.333E+00 -.101E+00 -.424E+00
   -.106E+01 0.763E+00 -.818E+03   0.591E+00 -.512E+00 0.818E+03   0.244E+00 0.332E-01 0.170E+00   0.228E+00 -.267E+00 -.781E+00
   0.336E+00 -.197E+00 0.321E+04   -.392E+00 0.225E+00 -.320E+04   0.118E-01 -.703E-02 -.143E+01   0.574E-01 -.297E-01 -.545E+00
   0.912E+02 -.527E+02 -.288E+04   -.928E+02 0.535E+02 0.288E+04   0.167E+01 -.973E+00 0.405E+00   -.746E-01 0.139E+00 -.105E+01
   -.290E+00 0.134E+00 0.122E+04   0.236E+00 -.134E+00 -.122E+04   0.594E-03 -.459E-03 -.293E+00   0.626E-01 -.374E-02 -.600E+00
   -.609E+01 -.344E+01 -.808E+03   0.588E+01 0.338E+01 0.808E+03   0.240E-01 0.992E-02 0.472E+00   0.185E+00 0.484E-01 -.927E+00
   -.424E+00 -.169E+00 0.321E+04   0.398E+00 0.176E+00 -.320E+04   -.139E-01 -.110E-01 -.142E+01   0.252E-01 -.369E-02 -.524E+00
   -.914E+02 -.526E+02 -.288E+04   0.929E+02 0.534E+02 0.288E+04   -.168E+01 -.968E+00 0.425E+00   0.184E+00 0.153E+00 -.113E+01
   -.344E+01 -.143E+01 0.121E+04   0.358E+01 0.112E+01 -.121E+04   0.267E-01 -.790E-01 -.169E+00   -.122E+00 0.373E+00 -.443E+00
   0.557E+01 -.322E+01 -.809E+03   -.540E+01 0.308E+01 0.809E+03   -.211E-01 0.129E-01 0.452E+00   -.147E+00 0.127E+00 -.897E+00
   0.141E+00 0.810E+00 0.321E+04   -.979E-01 -.624E+00 -.320E+04   0.355E-01 -.487E-02 -.144E+01   -.903E-01 -.174E+00 -.587E+00
   0.112E+03 -.588E+02 -.285E+04   -.113E+03 0.597E+02 0.285E+04   0.170E+01 -.855E+00 0.193E+00   -.612E-01 -.746E-01 -.103E+01
   0.911E-02 0.396E+01 0.121E+04   0.447E-01 -.404E+01 -.121E+04   0.838E-03 0.600E-01 -.207E+00   -.474E-01 0.282E-02 -.676E+00
   -.537E+00 -.118E+01 -.820E+03   0.660E+00 0.648E+00 0.820E+03   -.135E+00 0.190E+00 0.174E+00   -.641E-02 0.338E+00 -.801E+00
   -.559E-01 0.787E+00 0.321E+04   0.937E-01 -.581E+00 -.320E+04   -.340E-01 -.611E-02 -.145E+01   0.885E-02 -.193E+00 -.586E+00
   -.111E+03 -.591E+02 -.285E+04   0.113E+03 0.600E+02 0.285E+04   -.170E+01 -.861E+00 0.188E+00   -.398E-01 -.925E-01 -.990E+00
   0.329E+01 -.159E+01 0.121E+04   -.341E+01 0.139E+01 -.121E+04   -.239E-01 -.733E-01 -.166E+00   0.108E+00 0.260E+00 -.459E+00
   0.104E+01 -.139E+01 -.820E+03   -.112E+01 0.968E+00 0.820E+03   0.143E+00 0.196E+00 0.193E+00   -.505E-01 0.222E+00 -.846E+00
   -.711E+00 -.326E+00 0.321E+04   0.549E+00 0.211E+00 -.320E+04   -.118E-01 0.318E-01 -.145E+01   0.173E+00 0.683E-01 -.595E+00
   -.449E+01 0.126E+03 -.285E+04   0.443E+01 -.128E+03 0.285E+04   -.113E+00 0.190E+01 0.189E+00   0.148E+00 0.857E-01 -.993E+00
   0.299E+01 -.206E+01 0.121E+04   -.290E+01 0.227E+01 -.121E+04   0.515E-01 0.587E-01 -.165E+00   -.145E+00 -.238E+00 -.438E+00
   -.202E+01 0.113E+01 -.834E+03   0.208E+01 -.120E+01 0.836E+03   -.106E-01 0.581E-02 -.120E+01   -.507E-01 0.616E-01 -.832E+00
   -.364E-02 -.100E+01 0.321E+04   -.430E-01 0.882E+00 -.320E+04   -.215E-02 -.321E-01 -.120E+01   0.483E-01 0.165E+00 -.421E+00
   0.266E+00 0.302E+02 -.285E+04   -.353E+00 -.308E+02 0.285E+04   0.336E-02 0.387E+00 0.312E+01   0.799E-01 0.240E+00 -.104E+01
   -.318E+01 -.175E+01 0.121E+04   0.298E+01 0.198E+01 -.121E+04   -.524E-01 0.608E-01 -.175E+00   0.271E+00 -.259E+00 -.400E+00
   -.695E-01 0.692E+01 -.808E+03   -.193E-01 -.677E+01 0.808E+03   0.363E-02 -.363E-01 0.472E+00   0.830E-01 -.111E+00 -.889E+00
   0.708E+00 -.214E+00 0.321E+04   -.539E+00 0.157E+00 -.320E+04   0.159E-01 0.358E-01 -.145E+01   -.185E+00 0.660E-02 -.556E+00
   0.466E+01 0.126E+03 -.285E+04   -.461E+01 -.128E+03 0.285E+04   0.112E+00 0.191E+01 0.183E+00   -.147E+00 0.101E+00 -.105E+01
   0.465E+01 0.297E+01 0.121E+04   -.455E+01 -.294E+01 -.121E+04   0.767E-01 0.463E-01 -.173E+00   -.207E+00 -.902E-01 -.155E+00
   0.218E+01 0.161E+01 -.834E+03   -.225E+01 -.172E+01 0.836E+03   0.479E-02 0.108E-01 -.118E+01   0.557E-01 0.963E-01 -.882E+00
   0.235E-02 0.175E-01 0.321E+04   0.350E-01 -.177E-01 -.321E+04   -.169E-02 0.550E-03 -.127E+01   -.355E-01 -.720E-03 -.340E+00
   -.180E+00 0.782E-01 -.288E+04   0.254E+00 -.108E+00 0.288E+04   -.373E-02 0.104E-02 0.336E+01   -.720E-01 0.299E-01 -.137E+01
   -.486E+01 0.281E+01 0.121E+04   0.489E+01 -.281E+01 -.121E+04   -.731E-01 0.429E-01 -.172E+00   0.828E-01 -.675E-01 -.196E+00
   -.327E-01 0.496E+01 -.810E+03   0.117E+00 -.499E+01 0.810E+03   0.733E-03 -.978E-01 0.446E+00   -.856E-01 0.119E+00 -.981E+00
   0.419E+02 0.240E+02 -.230E+04   -.425E+02 -.244E+02 0.233E+04   0.441E+00 0.261E+00 -.286E+02   0.205E+00 0.107E+00 0.283E-01
   0.247E+00 -.483E+02 -.230E+04   -.213E+00 0.490E+02 0.233E+04   0.153E-02 -.510E+00 -.286E+02   -.349E-01 -.209E+00 0.367E-01
   -.197E-02 -.570E-01 -.231E+04   -.214E-01 0.422E-01 0.234E+04   0.190E-02 -.344E-02 -.283E+02   0.154E-01 0.230E-01 0.123E+00
   -.418E+02 0.243E+02 -.230E+04   0.424E+02 -.246E+02 0.233E+04   -.370E+00 0.224E+00 -.285E+02   -.239E+00 0.995E-01 -.258E-01
   0.158E+01 -.728E+00 -.224E+04   -.302E+01 0.146E+01 0.222E+04   0.141E+01 -.693E+00 0.189E+02   0.301E-01 -.364E-01 -.481E-01
   -.271E+01 0.135E+01 -.424E+03   0.298E+01 -.148E+01 0.432E+03   -.284E+00 0.141E+00 -.823E+01   0.126E-02 -.255E-02 0.657E-02
   -.129E+01 0.651E+00 0.157E+03   0.100E-11 -.173E-12 0.165E-11   0.127E+01 -.621E+00 -.111E+03   0.382E-01 -.403E-01 -.457E+02

 POSITION                                       TOTAL-FORCE (eV/Angst)
     -0.00000      1.94796      2.00000        -0.013221      0.005162      0.250295
     -0.03468      1.96072      8.06479         0.032670     -0.042739      0.008252
      1.24593      1.22862      4.03457         0.020484      0.004590     -0.201242
      0.00517      0.50721      6.00617         0.004486      0.003213      0.004476
      2.49184      1.94796      2.00000         0.007511      0.004491      0.258125
      2.47812      1.92896      8.14739        -0.051896     -0.027038      0.036165
      3.73777      1.22862      4.03457         0.005393      0.013218     -0.153636
      2.49122      0.51860      6.02665         0.008628     -0.003409     -0.003919
      4.98369      1.94796      2.00000        -0.007649      0.003886      0.257894
      5.01989      1.92787      8.13874         0.044798     -0.025558      0.046790
      6.22962      1.22862      4.03457        -0.003774      0.003091     -0.205226
      4.99452      0.51819      6.02525        -0.012454     -0.004325     -0.003865
      7.47553      1.94796      2.00000         0.012766      0.006847      0.250411
      7.53173      1.96080      8.06428        -0.042459     -0.045528      0.010702
      8.72146      1.22862      4.03457         0.007515      0.036531     -0.271600
      7.48009      0.50712      6.00626        -0.007512      0.004281      0.004175
     -1.24593      4.10596      2.00000        -0.000648      0.016073      0.234234
     -1.23618      4.07609      8.06936        -0.003249      0.043583      0.020081
      0.00000      3.38662      4.03457         0.032172     -0.031626     -0.252460
     -1.24050      2.66844      6.04026        -0.000715      0.000348      0.025323
      1.24592      4.10596      2.00000         0.008961     -0.005831      0.139473
      1.23506      4.11305      7.94582         0.007811     -0.004723      0.054488
      2.49185      3.38662      4.03457         0.019687     -0.010829     -0.154410
      1.25861      2.65399      6.02671         0.000121      0.012720     -0.004082
      3.73776      4.10596      2.00000        -0.000584     -0.009503      0.258181
      3.74811      4.12845      8.14698        -0.002943      0.059953      0.035429
      4.98369      3.38662      4.03457        -0.008002     -0.010301     -0.153322
      3.74263      2.66490      6.07006        -0.001578      0.001035      0.029514
      6.22961      4.10596      2.00000        -0.009861     -0.005510      0.139588
      6.26036      4.11319      7.94467        -0.012958     -0.003102      0.053318
      7.47554      3.38662      4.03457        -0.014771     -0.030517     -0.256338
      6.22776      2.65414      6.02529        -0.002466      0.013120     -0.004717
     -2.49185      6.26396      2.00000         0.013742     -0.008401      0.235338
     -2.50396      6.27186      8.06892         0.036950     -0.021589      0.022210
     -1.24592      5.54462      4.03457         0.008257     -0.004179     -0.266336
     -2.48650      4.82333      6.00117        -0.000120      0.002188     -0.000733
     -0.00000      6.26396      2.00000        -0.014751     -0.008260      0.234157
      0.03189      6.27201      8.06914        -0.041382     -0.021252      0.020223
      1.24593      5.54462      4.03457         0.044045     -0.011064     -0.252819
      0.00450      4.82314      6.00175        -0.003593      0.001360     -0.000420
      2.49184      6.26396      2.00000        -0.011503      0.008218      0.250446
      2.46423      6.28895      8.06460         0.057322     -0.009834      0.012639
      3.73777      5.54462      4.03457         0.007048     -0.018879     -0.201088
      2.51005      4.82156      6.02667        -0.011597     -0.006446     -0.003726
      4.98369      6.26396      2.00000         0.012503      0.007687      0.249984
      5.03164      6.28989      8.06483        -0.069557     -0.013163      0.016068
      6.22962      5.54462      4.03457        -0.029797     -0.009643     -0.252177
      4.97578      4.82185      6.02665         0.006786     -0.005553     -0.004997
     -3.73777      8.42196      2.00000        -0.000873     -0.015092      0.249970
     -3.73555      8.36881      8.06487        -0.023276      0.064771      0.016144
     -2.49184      7.70262      4.03457        -0.006082      0.032033     -0.252188
     -3.72987      6.97922      6.04035        -0.000596     -0.000177      0.024773
     -1.24593      8.42196      2.00000        -0.000731      0.010692      0.139643
     -1.23610      8.39305      7.94463        -0.003245      0.012258      0.053176
      0.00000      7.70262      4.03457         0.019725      0.029442     -0.256711
     -1.24116      6.98029      6.00114        -0.002414     -0.000612     -0.001285
      1.24592      8.42196      2.00000         0.000154     -0.014925      0.250522
      1.26377      8.36804      8.06413         0.018621      0.063270      0.015735
      2.49185      7.70262      4.03457        -0.026883     -0.023225     -0.271819
      1.24812      6.97876      6.04022        -0.001241     -0.000076      0.022465
      3.73776      8.42196      2.00000        -0.000133     -0.000171      0.132023
      3.74739      8.41722      7.96621        -0.001981      0.000893      0.055378
      4.98369      7.70262      4.03457         0.041950     -0.023235     -0.270803
      3.74257      6.98050      6.00617        -0.000852     -0.006103      0.004408
      1.13201      1.15197      9.21253         0.015356      0.006565     -0.092394
      3.74812      5.68259      9.21255         0.000360     -0.014619     -0.095375
     -1.23544      5.53999      9.18841        -0.006330      0.004907     -0.084021
      6.36480      1.15165      9.21105        -0.023443      0.011115     -0.096437
      3.76015      2.65589      9.46716        -0.002743      0.001562     -0.017584
      3.79386      2.63917     10.44100        -0.015962      0.007933     -0.036487
    total drift:                                0.014677     -0.010846      0.205517

  FREE ENERGIE OF THE ION-ELECTRON SYSTEM (eV)
  free  energy   TOTEN  =      -387.03932307 eV

  energy  without entropy=     -387.03932307  energy(sigma->0) =     -387.03932307

 stress matrix after NEB project (eV)
    -23.81156      0.18410     -0.50112
      0.18410    -23.62971      0.24611
     -0.50112      0.24611     -2.91744
  FORCES: max atom, RMS     0.099866    0.037827
  FORCE total and by dimension    0.316479    0.096437
  Stress total and by dimension   33.683175   23.811559

 total charge

[...]

 magnetization (x)

# of ion       s       p       d       tot
    1       -0.009  -0.027   0.688   0.652
    2       -0.003  -0.013   0.547   0.532
    3       -0.008  -0.028   0.723   0.687
    4       -0.008  -0.026   0.720   0.687
    5       -0.009  -0.026   0.698   0.663
    6       -0.004  -0.010   0.698   0.683
    7       -0.007  -0.028   0.702   0.667
    8       -0.007  -0.026   0.705   0.672
    9       -0.009  -0.026   0.698   0.663
   10       -0.005  -0.010   0.692   0.677
   11       -0.008  -0.029   0.723   0.686
   12       -0.007  -0.026   0.705   0.672
   13       -0.009  -0.027   0.687   0.651
   14       -0.003  -0.013   0.547   0.531
   15       -0.008  -0.028   0.692   0.657
   16       -0.008  -0.026   0.722   0.688
   17       -0.008  -0.027   0.698   0.663
   18       -0.003  -0.013   0.570   0.554
   19       -0.007  -0.028   0.686   0.651
   20       -0.006  -0.022   0.561   0.533
   21       -0.002  -0.027   0.704   0.676
   22       -0.010  -0.016   0.767   0.740
   23       -0.007  -0.028   0.701   0.666
   24       -0.007  -0.026   0.705   0.672
   25       -0.009  -0.026   0.698   0.663
   26       -0.004  -0.010   0.697   0.682
   27       -0.007  -0.028   0.702   0.667
   28       -0.006  -0.023   0.654   0.625
   29       -0.002  -0.027   0.704   0.676
   30       -0.010  -0.016   0.766   0.740
   31       -0.007  -0.028   0.686   0.651
   32       -0.007  -0.026   0.705   0.672
   33       -0.008  -0.027   0.697   0.663
   34       -0.003  -0.013   0.569   0.553
   35       -0.008  -0.028   0.723   0.687
   36       -0.008  -0.026   0.711   0.678
   37       -0.008  -0.027   0.698   0.663
   38       -0.003  -0.013   0.571   0.555
   39       -0.007  -0.028   0.687   0.652
   40       -0.008  -0.026   0.713   0.679
   41       -0.009  -0.027   0.688   0.652
   42       -0.003  -0.013   0.548   0.532
   43       -0.008  -0.028   0.724   0.687
   44       -0.007  -0.026   0.705   0.672
   45       -0.009  -0.027   0.687   0.651
   46       -0.003  -0.013   0.548   0.532
   47       -0.007  -0.028   0.685   0.650
   48       -0.007  -0.026   0.705   0.672
   49       -0.009  -0.027   0.687   0.651
   50       -0.003  -0.013   0.548   0.533
   51       -0.007  -0.028   0.685   0.650
   52       -0.006  -0.022   0.560   0.532
   53       -0.002  -0.027   0.704   0.676
   54       -0.010  -0.016   0.768   0.742
   55       -0.007  -0.028   0.686   0.651
   56       -0.008  -0.026   0.712   0.678
   57       -0.009  -0.027   0.687   0.652
   58       -0.003  -0.013   0.547   0.532
   59       -0.008  -0.028   0.692   0.657
   60       -0.006  -0.022   0.561   0.533
   61       -0.001  -0.027   0.691   0.663
   62       -0.011  -0.015   0.749   0.722
   63       -0.008  -0.028   0.691   0.656
   64       -0.008  -0.026   0.720   0.687
   65        0.002   0.122   0.000   0.125
   66        0.002   0.122   0.000   0.125
   67        0.002   0.114   0.000   0.116
   68        0.002   0.122   0.000   0.124
   69        0.011   0.132   0.000   0.143
   70        0.001   0.002   0.000   0.003
tot         -0.406  -0.871  43.302  42.025

 BZINTS: Fermi energy:  0.651800;671.000000 electrons
         Band energy:***********;  BLOECHL correction: -0.044431