 vasp.5.4.4.18Apr17-6-g9f103f2a35 (build Sep 06 2021 19:49:22) complex

 executed on             LinuxIFC date 2021.12.23  23:22:26

 INCAR:
 POTCAR:    PAW_PBE Fe 06Sep2000
 POTCAR:    PAW_PBE Fe 06Sep2000
   VRHFIN =Fe:  d7 s1

   TITEL  = PAW_PBE Fe 06Sep2000
   POMASS =   55.847; ZVAL   =    8.000    mass and valenz
   ENMAX  =  267.882; ENMIN  =  200.911 eV

 Optimization of the real space projectors (new method)

 maximal supplied QI-value         = 16.25
 optimisation between [QCUT,QGAM] = [ 11.54, 23.24] = [ 37.28,151.24] Ry
 Optimized for a Real-space Cutoff    1.53 Angstroem

   l    n(q)    QCUT    max X(q) W(low)/X(q) W(high)/X(q)  e(spline)
   2     10    11.539    80.901    0.11E-03    0.14E-03    0.21E-06
   2     10    11.539    75.754    0.11E-03    0.14E-03    0.22E-06
   0     11    11.539    58.752    0.52E-04    0.18E-04    0.33E-06
   0     11    11.539    30.679    0.44E-04    0.16E-04    0.30E-06
   1     10    11.539    17.977    0.53E-04    0.29E-04    0.13E-06
   1     10    11.539    13.559    0.44E-04    0.25E-04    0.11E-06
  PAW_PBE Fe 06Sep2000                  :

 POSCAR: Fe
  positions in direct lattice
 exchange correlation table for  LEXCH =        8
   RHO(1)=    0.500       N(1)  =     2000
   RHO(2)=  100.500       N(2)  =     4000

 ion  position               nearest neighbor table
   1  0.000  0.000  0.000-

IMPORTANT INFORMATION: All symmetrisations will be switched off!
NOSYMM: (Re-)initialisation of all symmetry stuff for point group C_1.

Automatic generation of k-mesh.
 generate k-points for:   16   16   16
Space group operators:
 irot       det(A)        alpha          n_x          n_y          n_z        tau_x        tau_y        tau_z
    1     1.000000     0.000001     1.000000     0.000000     0.000000     0.000000     0.000000     0.000000

 Subroutine IBZKPT returns following result:

 Found   2052 irreducible k-points:

 Following reciprocal coordinates:
            Coordinates               Weight
  0.000000  0.000000  0.000000      1.000000
  0.062500  0.000000  0.000000      2.000000
  0.125000  0.000000  0.000000      2.000000
  0.187500  0.000000  0.000000      2.000000
  0.250000  0.000000  0.000000      2.000000
  0.312500  0.000000  0.000000      2.000000
  0.375000  0.000000  0.000000      2.000000
  0.437500  0.000000  0.000000      2.000000
  0.500000  0.000000  0.000000      1.000000
  0.000000  0.062500  0.000000      2.000000
  0.062500  0.062500  0.000000      2.000000
  0.125000  0.062500  0.000000      2.000000
  0.187500  0.062500  0.000000      2.000000
  0.250000  0.062500  0.000000      2.000000
  0.312500  0.062500  0.000000      2.000000
  0.375000  0.062500  0.000000      2.000000
  0.437500  0.062500  0.000000      2.000000
  0.500000  0.062500  0.000000      2.000000
 -0.437500  0.062500  0.000000      2.000000
 -0.375000  0.062500  0.000000      2.000000
 -0.312500  0.062500  0.000000      2.000000
 -0.250000  0.062500  0.000000      2.000000
 -0.187500  0.062500  0.000000      2.000000
 -0.125000  0.062500  0.000000      2.000000
 -0.062500  0.062500  0.000000      2.000000
  0.000000  0.125000  0.000000      2.000000
  0.062500  0.125000  0.000000      2.000000
  0.125000  0.125000  0.000000      2.000000
  0.187500  0.125000  0.000000      2.000000
  0.250000  0.125000  0.000000      2.000000
  0.312500  0.125000  0.000000      2.000000
  0.375000  0.125000  0.000000      2.000000
  0.437500  0.125000  0.000000      2.000000
  0.500000  0.125000  0.000000      2.000000
 -0.437500  0.125000  0.000000      2.000000
 -0.375000  0.125000  0.000000      2.000000
 -0.312500  0.125000  0.000000      2.000000
 -0.250000  0.125000  0.000000      2.000000
 -0.187500  0.125000  0.000000      2.000000
 -0.125000  0.125000  0.000000      2.000000
 -0.062500  0.125000  0.000000      2.000000
  0.000000  0.187500  0.000000      2.000000
  0.062500  0.187500  0.000000      2.000000
  0.125000  0.187500  0.000000      2.000000
  0.187500  0.187500  0.000000      2.000000
  0.250000  0.187500  0.000000      2.000000
  0.312500  0.187500  0.000000      2.000000
  0.375000  0.187500  0.000000      2.000000
  0.437500  0.187500  0.000000      2.000000
  0.500000  0.187500  0.000000      2.000000
 -0.437500  0.187500  0.000000      2.000000
 -0.375000  0.187500  0.000000      2.000000
 -0.312500  0.187500  0.000000      2.000000
 -0.250000  0.187500  0.000000      2.000000
 -0.187500  0.187500  0.000000      2.000000
 -0.125000  0.187500  0.000000      2.000000
 -0.062500  0.187500  0.000000      2.000000
  0.000000  0.250000  0.000000      2.000000
  0.062500  0.250000  0.000000      2.000000
  0.125000  0.250000  0.000000      2.000000
[...]
 -0.375000  0.437500  0.500000      2.000000
 -0.312500  0.437500  0.500000      2.000000
 -0.250000  0.437500  0.500000      2.000000
 -0.187500  0.437500  0.500000      2.000000
 -0.125000  0.437500  0.500000      2.000000
 -0.062500  0.437500  0.500000      2.000000
  0.000000  0.500000  0.500000      1.000000
  0.062500  0.500000  0.500000      2.000000
  0.125000  0.500000  0.500000      2.000000
  0.187500  0.500000  0.500000      2.000000
  0.250000  0.500000  0.500000      2.000000
  0.312500  0.500000  0.500000      2.000000
  0.375000  0.500000  0.500000      2.000000
  0.437500  0.500000  0.500000      2.000000
  0.500000  0.500000  0.500000      1.000000

 Following cartesian coordinates:
            Coordinates               Weight
  0.000000  0.000000  0.000000      1.000000
  0.025177  0.008901  0.015418      2.000000
  0.050354  0.017803  0.030836      2.000000
  0.075532  0.026704  0.046253      2.000000
  0.100709  0.035606  0.061671      2.000000
  0.125886  0.044507  0.077089      2.000000
  0.151063  0.053409  0.092507      2.000000
  0.176241  0.062310  0.107925      2.000000
  0.201418  0.071212  0.123343      1.000000
  0.000000  0.026705  0.015418      2.000000
  0.025177  0.035606  0.030836      2.000000
  0.050354  0.044507  0.046253      2.000000
  0.075532  0.053409  0.061671      2.000000
  0.100709  0.062310  0.077089      2.000000
  0.125886  0.071212  0.092507      2.000000
  0.151063  0.080113  0.107925      2.000000
  0.176241  0.089015  0.123343      2.000000
  0.201418  0.097916  0.138760      2.000000
 -0.176241 -0.035606 -0.092507      2.000000
 -0.151063 -0.026704 -0.077089      2.000000
 -0.125886 -0.017803 -0.061671      2.000000
 -0.100709 -0.008901 -0.046253      2.000000
 -0.075532  0.000000 -0.030836      2.000000
 -0.050354  0.008902 -0.015418      2.000000
 -0.025177  0.017803 -0.000000      2.000000
  0.000000  0.053409  0.030836      2.000000
  0.025177  0.062310  0.046253      2.000000
  0.050354  0.071212  0.061671      2.000000
  0.075532  0.080113  0.077089      2.000000
  0.100709  0.089015  0.092507      2.000000
  0.125886  0.097916  0.107925      2.000000
  0.151063  0.106818  0.123343      2.000000
  0.176241  0.115719  0.138760      2.000000
  0.201418  0.124621  0.154178      2.000000
 -0.176241 -0.008901 -0.077089      2.000000
 -0.151063  0.000000 -0.061671      2.000000
 -0.125886  0.008902 -0.046253      2.000000
 -0.100709  0.017803 -0.030836      2.000000
 -0.075532  0.026705 -0.015418      2.000000
 -0.050354  0.035606 -0.000000      2.000000
 -0.025177  0.044508  0.015418      2.000000
  0.000000  0.080114  0.046253      2.000000
  0.025177  0.089015  0.061671      2.000000
  0.050354  0.097916  0.077089      2.000000
  0.075532  0.106818  0.092507      2.000000
  0.100709  0.115719  0.107925      2.000000
  0.125886  0.124621  0.123343      2.000000
  0.151063  0.133522  0.138760      2.000000
  0.176241  0.142424  0.154178      2.000000
  0.201418  0.151325  0.169596      2.000000
 -0.176241  0.017803 -0.061671      2.000000
 -0.151063  0.026705 -0.046253      2.000000
 -0.125886  0.035606 -0.030836      2.000000
 -0.100709  0.044508 -0.015418      2.000000
 -0.075532  0.053409 -0.000000      2.000000
 -0.050354  0.062311  0.015418      2.000000
 -0.025177  0.071212  0.030836      2.000000
  0.000000  0.106818  0.061671      2.000000
  0.025177  0.115719  0.077089      2.000000
  0.050354  0.124621  0.092507      2.000000
[...]
 -0.151063  0.133523  0.262103      2.000000
 -0.125886  0.142424  0.277521      2.000000
 -0.100709  0.151326  0.292939      2.000000
 -0.075532  0.160227  0.308357      2.000000
 -0.050354  0.169129  0.323775      2.000000
 -0.025177  0.178030  0.339192      2.000000
  0.000000  0.213636  0.370028      1.000000
  0.025177  0.222537  0.385446      2.000000
  0.050354  0.231439  0.400864      2.000000
  0.075532  0.240340  0.416281      2.000000
  0.100709  0.249242  0.431699      2.000000
  0.125886  0.258143  0.447117      2.000000
  0.151063  0.267045  0.462535      2.000000
  0.176241  0.275946  0.477953      2.000000
  0.201418  0.284848  0.493371      1.000000

 TETIRR: Found  12288 inequivalent tetrahedra from    24576

 SYSTEM =  SQS-NiFe
 POSCAR =  Fe

 Startparameter for this run:
   NWRITE =      2    write-flag & timer
   PREC   = accura    normal or accurate (medium, high low for compatibility)
   ISTART =      0    job   : 0-new  1-cont  2-samecut
   ICHARG =     11    charge: 1-file 2-atom 10-const
   ISPIN  =      2    spin polarized calculation?
   LNONCOLLINEAR =      F non collinear calculations
   LSORBIT =      F    spin-orbit coupling
   INIWAV =      1    electr: 0-lowe 1-rand  2-diag
   LASPH  =      F    aspherical Exc in radial PAW
   METAGGA=      F    non-selfconsistent MetaGGA calc.

 Electronic Relaxation 1
   ENCUT  =  520.0 eV  38.22 Ry    6.18 a.u.   4.62  4.62  4.62*2*pi/ulx,y,z
   ENINI  =  520.0     initial cutoff
   ENAUG  =  511.4 eV  augmentation charge cutoff
   NELM   =    200;   NELMIN=  2; NELMDL= -5     # of ELM steps
   EDIFF  = 0.1E-05   stopping-criterion for ELM
   LREAL  =      T    real-space projection
   NLSPLINE    = F    spline interpolate recip. space projectors
   LCOMPAT=      F    compatible to vasp.4.4
   GGA_COMPAT  = T    GGA compatible to vasp.4.4-vasp.4.6
   LMAXPAW     = -100 max onsite density
   LMAXMIX     =    2 max onsite mixed and CHGCAR
   VOSKOWN=      0    Vosko Wilk Nusair interpolation
   ROPT   =   -0.00025
 Ionic relaxation
   EDIFFG = -.2E-01   stopping-criterion for IOM
   NSW    =      0    number of steps for IOM
   NBLOCK =      1;   KBLOCK =      1    inner block; outer block
   IBRION =     -1    ionic relax: 0-MD 1-quasi-New 2-CG
   NFREE  =      0    steps in history (QN), initial steepest desc. (CG)
   ISIF   =      2    stress and relaxation
   IWAVPR =     10    prediction:  0-non 1-charg 2-wave 3-comb
   ISYM   =      0    0-nonsym 1-usesym 2-fastsym
   LCORR  =      T    Harris-Foulkes like correction to forces

   POTIM  = 0.5000    time-step for ionic-motion
   TEIN   =    0.0    initial temperature
   TEBEG  =    0.0;   TEEND  =   0.0 temperature during run
   SMASS  =  -3.00    Nose mass-parameter (am)
   estimated Nose-frequenzy (Omega)   =  0.10E-29 period in steps =****** mass=  -0.141E-27a.u.
   SCALEE = 1.0000    scale energy and forces
   NPACO  =    256;   APACO  = 16.0  distance and # of slots for P.C.
   PSTRESS=    0.0 pullay stress

  Mass of Ions in am
   POMASS =  55.85
  Ionic Valenz
[...]
   0.31250000  0.50000000  0.50000000       0.000
   0.37500000  0.50000000  0.50000000       0.000
   0.43750000  0.50000000  0.50000000       0.000
   0.50000000  0.50000000  0.50000000       0.000

 position of ions in fractional coordinates (direct lattice)
   0.00000000  0.00000000  0.00000000

 position of ions in cartesian coordinates  (Angst):
   0.00000000  0.00000000  0.00000000

 k-point  1 :   0.0000 0.0000 0.0000  plane waves:     321
 k-point  2 :   0.0625 0.0000 0.0000  plane waves:     321
 k-point  3 :   0.1250 0.0000 0.0000  plane waves:     325
 k-point  4 :   0.1875 0.0000 0.0000  plane waves:     325
 k-point  5 :   0.2500 0.0000 0.0000  plane waves:     320
 k-point  6 :   0.3125 0.0000 0.0000  plane waves:     322
 k-point  7 :   0.3750 0.0000 0.0000  plane waves:     316
 k-point  8 :   0.4375 0.0000 0.0000  plane waves:     320
 k-point  9 :   0.5000 0.0000 0.0000  plane waves:     312
 k-point 10 :   0.0000 0.0625 0.0000  plane waves:     321
 k-point 11 :   0.0625 0.0625 0.0000  plane waves:     323
 k-point 12 :   0.1250 0.0625 0.0000  plane waves:     328
 k-point 13 :   0.1875 0.0625 0.0000  plane waves:     323
 k-point 14 :   0.2500 0.0625 0.0000  plane waves:     319
 k-point 15 :   0.3125 0.0625 0.0000  plane waves:     316
 k-point 16 :   0.3750 0.0625 0.0000  plane waves:     316
 k-point 17 :   0.4375 0.0625 0.0000  plane waves:     319
 k-point 18 :   0.5000 0.0625 0.0000  plane waves:     319
 k-point 19 :  -0.4375 0.0625 0.0000  plane waves:     316
 k-point 20 :  -0.3750 0.0625 0.0000  plane waves:     316
 k-point 21 :  -0.3125 0.0625 0.0000  plane waves:     319
 k-point 22 :  -0.2500 0.0625 0.0000  plane waves:     323
 k-point 23 :  -0.1875 0.0625 0.0000  plane waves:     328
 k-point 24 :  -0.1250 0.0625 0.0000  plane waves:     323
 k-point 25 :  -0.0625 0.0625 0.0000  plane waves:     321
 k-point 26 :   0.0000 0.1250 0.0000  plane waves:     325
 k-point 27 :   0.0625 0.1250 0.0000  plane waves:     328
 k-point 28 :   0.1250 0.1250 0.0000  plane waves:     327
 k-point 29 :   0.1875 0.1250 0.0000  plane waves:     323
 k-point 30 :   0.2500 0.1250 0.0000  plane waves:     320
 k-point 31 :   0.3125 0.1250 0.0000  plane waves:     314
 k-point 32 :   0.3750 0.1250 0.0000  plane waves:     312
 k-point 33 :   0.4375 0.1250 0.0000  plane waves:     317
 k-point 34 :   0.5000 0.1250 0.0000  plane waves:     312
 k-point 35 :  -0.4375 0.1250 0.0000  plane waves:     314
 k-point 36 :  -0.3750 0.1250 0.0000  plane waves:     320
 k-point 37 :  -0.3125 0.1250 0.0000  plane waves:     323
 k-point 38 :  -0.2500 0.1250 0.0000  plane waves:     327
 k-point 39 :  -0.1875 0.1250 0.0000  plane waves:     328
 k-point 40 :  -0.1250 0.1250 0.0000  plane waves:     325
 k-point 41 :  -0.0625 0.1250 0.0000  plane waves:     323
 k-point 42 :   0.0000 0.1875 0.0000  plane waves:     325
 k-point 43 :   0.0625 0.1875 0.0000  plane waves:     323
 k-point 44 :   0.1250 0.1875 0.0000  plane waves:     323
 k-point 45 :   0.1875 0.1875 0.0000  plane waves:     320
 k-point 46 :   0.2500 0.1875 0.0000  plane waves:     315
 k-point 47 :   0.3125 0.1875 0.0000  plane waves:     316
 k-point 48 :   0.3750 0.1875 0.0000  plane waves:     314
 k-point 49 :   0.4375 0.1875 0.0000  plane waves:     314
 k-point 50 :   0.5000 0.1875 0.0000  plane waves:     316
 k-point 51 :  -0.4375 0.1875 0.0000  plane waves:     315
 k-point 52 :  -0.3750 0.1875 0.0000  plane waves:     320
 k-point 53 :  -0.3125 0.1875 0.0000  plane waves:     323
 k-point 54 :  -0.2500 0.1875 0.0000  plane waves:     323
 k-point 55 :  -0.1875 0.1875 0.0000  plane waves:     325
 k-point 56 :  -0.1250 0.1875 0.0000  plane waves:     328
 k-point 57 :  -0.0625 0.1875 0.0000  plane waves:     328
 k-point 58 :   0.0000 0.2500 0.0000  plane waves:     320
 k-point 59 :   0.0625 0.2500 0.0000  plane waves:     319
 k-point 60 :   0.1250 0.2500 0.0000  plane waves:     320
[...]
 k-point 85 :  -0.3125 0.3125 0.0000  plane waves:     322
 k-point 86 :  -0.2500 0.3125 0.0000  plane waves:     319
 k-point 87 :  -0.1875 0.3125 0.0000  plane waves:     323
 k-point 88 :  -0.1250 0.3125 0.0000  plane waves:     323
 k-point 89 :  -0.0625 0.3125 0.0000  plane waves:     319
 k-point 90 :   0.0000 0.3750 0.0000  plane waves:     316
 k-point 91 :   0.0625 0.3750 0.0000  plane waves:     316
 k-point 92 :   0.1250 0.3750 0.0000  plane waves:     312
 k-point 93 :   0.1875 0.3750 0.0000  plane waves:     314
 k-point 94 :   0.2500 0.3750 0.0000  plane waves:     314
 k-point 95 :   0.3125 0.3750 0.0000  plane waves:     311
 k-point 96 :   0.3750 0.3750 0.0000  plane waves:     314
 k-point 97 :   0.4375 0.3750 0.0000  plane waves:     314
 k-point 98 :   0.5000 0.3750 0.0000  plane waves:     312
 k-point 99 :  -0.4375 0.3750 0.0000  plane waves:     316
 k-point ** :  -0.3750 0.3750 0.0000  plane waves:     316
 k-point ** :  -0.3125 0.3750 0.0000  plane waves:     316
 k-point ** :  -0.2500 0.3750 0.0000  plane waves:     320
 k-point ** :  -0.1875 0.3750 0.0000  plane waves:     320
 k-point ** :  -0.1250 0.3750 0.0000  plane waves:     320
 k-point ** :  -0.0625 0.3750 0.0000  plane waves:     316
 k-point ** :   0.0000 0.4375 0.0000  plane waves:     320
 k-point ** :   0.0625 0.4375 0.0000  plane waves:     319
 k-point ** :   0.1250 0.4375 0.0000  plane waves:     317
 k-point ** :   0.1875 0.4375 0.0000  plane waves:     314
 k-point ** :   0.2500 0.4375 0.0000  plane waves:     313
 k-point ** :   0.3125 0.4375 0.0000  plane waves:     313
 k-point ** :   0.3750 0.4375 0.0000  plane waves:     314
 k-point ** :   0.4375 0.4375 0.0000  plane waves:     317
 k-point ** :   0.5000 0.4375 0.0000  plane waves:     319
 k-point ** :  -0.4375 0.4375 0.0000  plane waves:     320
 k-point ** :  -0.3750 0.4375 0.0000  plane waves:     316
 k-point ** :  -0.3125 0.4375 0.0000  plane waves:     314
 k-point ** :  -0.2500 0.4375 0.0000  plane waves:     315
 k-point ** :  -0.1875 0.4375 0.0000  plane waves:     315
 k-point ** :  -0.1250 0.4375 0.0000  plane waves:     314
 k-point ** :  -0.0625 0.4375 0.0000  plane waves:     316
 k-point ** :   0.0000 0.5000 0.0000  plane waves:     312
 k-point ** :   0.0625 0.5000 0.0000  plane waves:     319
 k-point ** :   0.1250 0.5000 0.0000  plane waves:     312
 k-point ** :   0.1875 0.5000 0.0000  plane waves:     316
 k-point ** :   0.2500 0.5000 0.0000  plane waves:     322
 k-point ** :   0.3125 0.5000 0.0000  plane waves:     316
 k-point ** :   0.3750 0.5000 0.0000  plane waves:     312
 k-point ** :   0.4375 0.5000 0.0000  plane waves:     319
 k-point ** :   0.5000 0.5000 0.0000  plane waves:     312
 k-point ** :   0.0000 0.0000 0.0625  plane waves:     321
 k-point ** :   0.0625 0.0000 0.0625  plane waves:     323
 k-point ** :   0.1250 0.0000 0.0625  plane waves:     328
 k-point ** :   0.1875 0.0000 0.0625  plane waves:     323
 k-point ** :   0.2500 0.0000 0.0625  plane waves:     319
 k-point ** :   0.3125 0.0000 0.0625  plane waves:     316
 k-point ** :   0.3750 0.0000 0.0625  plane waves:     316
 k-point ** :   0.4375 0.0000 0.0625  plane waves:     319
 k-point ** :   0.5000 0.0000 0.0625  plane waves:     319
 k-point ** :  -0.4375 0.0000 0.0625  plane waves:     316
 k-point ** :  -0.3750 0.0000 0.0625  plane waves:     316
 k-point ** :  -0.3125 0.0000 0.0625  plane waves:     319
 k-point ** :  -0.2500 0.0000 0.0625  plane waves:     323
 k-point ** :  -0.1875 0.0000 0.0625  plane waves:     328
 k-point ** :  -0.1250 0.0000 0.0625  plane waves:     323
 k-point ** :  -0.0625 0.0000 0.0625  plane waves:     321
 k-point ** :   0.0000 0.0625 0.0625  plane waves:     323
 k-point ** :   0.0625 0.0625 0.0625  plane waves:     327
 k-point ** :   0.1250 0.0625 0.0625  plane waves:     325
 k-point ** :   0.1875 0.0625 0.0625  plane waves:     326
 k-point ** :   0.2500 0.0625 0.0625  plane waves:     316
 k-point ** :   0.3125 0.0625 0.0625  plane waves:     324
 k-point ** :   0.3750 0.0625 0.0625  plane waves:     318
 k-point ** :   0.4375 0.0625 0.0625  plane waves:     318
 k-point ** :   0.5000 0.0625 0.0625  plane waves:     318
 k-point ** :  -0.4375 0.0625 0.0625  plane waves:     324
 k-point ** :  -0.3750 0.0625 0.0625  plane waves:     316
 k-point ** :  -0.3125 0.0625 0.0625  plane waves:     326
 k-point ** :  -0.2500 0.0625 0.0625  plane waves:     325
[...]
 k-point ** :  -0.3750 0.4375 0.5000  plane waves:     318
 k-point ** :  -0.3125 0.4375 0.5000  plane waves:     314
 k-point ** :  -0.2500 0.4375 0.5000  plane waves:     315
 k-point ** :  -0.1875 0.4375 0.5000  plane waves:     312
 k-point ** :  -0.1250 0.4375 0.5000  plane waves:     317
 k-point ** :  -0.0625 0.4375 0.5000  plane waves:     315
 k-point ** :   0.0000 0.5000 0.5000  plane waves:     312
 k-point ** :   0.0625 0.5000 0.5000  plane waves:     316
 k-point ** :   0.1250 0.5000 0.5000  plane waves:     316
 k-point ** :   0.1875 0.5000 0.5000  plane waves:     314
 k-point ** :   0.2500 0.5000 0.5000  plane waves:     314
 k-point ** :   0.3125 0.5000 0.5000  plane waves:     316
 k-point ** :   0.3750 0.5000 0.5000  plane waves:     312
 k-point ** :   0.4375 0.5000 0.5000  plane waves:     316
 k-point ** :   0.5000 0.5000 0.5000  plane waves:     298

 maximum and minimum number of plane-waves per node :       328      298

 maximum number of plane-waves:       328
 maximum index in each direction:
   IXMAX=    5   IYMAX=    5   IZMAX=    4
   IXMIN=   -5   IYMIN=   -5   IZMIN=   -5

 serial   3D FFT for wavefunctions
 parallel 3D FFT for charge:
    minimum data exchange during FFTs selected (reduces bandwidth)

 initial charge density was supplied:
 number of electron       7.9999998 magnetization       2.2521657
 keeping initial charge density in first step

 Maximum index for non-local projection operator         7343
 Maximum index for augmentation-charges        17153 (set IRDMAX)

 First call to EWALD:  gamma=   0.779
 Maximum number of real-space cells 3x 3x 3
 Maximum number of reciprocal cells 3x 3x 3

--------------------------------------- Iteration      1(   1)  ---------------------------------------

 BZINTS: Fermi energy: 11.536684;  8.000000 electrons
         Band energy:  53.458742;  BLOECHL correction: -0.463007

 eigenvalue-minimisations  : 85246
 total energy-change (2. order) : 0.1884279E+02  (-0.4117398E+03)
 number of electron       7.9999998 magnetization       2.2521657
 augmentation part        7.9999998 magnetization       2.2521657

 Free energy of the ion-electron system (eV)
  alpha Z        PSCENC =        58.69091876
  Ewald energy   TEWEN  =      -585.02541152
  -Hartree energ DENC   =       -97.90593088
  -exchange      EXHF   =         0.00000000
  -V(xc)+E(xc)   XCENC  =         4.28951287
  PAW double counting   =       705.21318967     -714.19091618
  entropy T*S    EENTRO =         0.00000000
  eigenvalues    EBANDS =        53.45874238
  atomic energy  EATOM  =       594.31268070
  Solvation  Ediel_sol  =         0.00000000
  free energy    TOTEN  =        18.84278579 eV

  energy without entropy =       18.84278579  energy(sigma->0) =       18.84278579

[...]

 eigenvalue-minimisations  : 83024
 total energy-change (2. order) :-0.2651548E+02  (-0.2465610E+02)
 number of electron       7.9999998 magnetization       2.2521657
 augmentation part        7.9999998 magnetization       2.2521657

[...]

--------------------------------------- Iteration      1(   6)  ---------------------------------------

[...]

 eigenvalue-minimisations  : 71298
 total energy-change (2. order) :-0.2552064E-06  (-0.2551556E-06)
 number of electron       7.9999998 magnetization       2.2521657
 augmentation part        7.9999998 magnetization       2.2521657

 Free energy of the ion-electron system (eV)
  alpha Z        PSCENC =        58.69091876
  Ewald energy   TEWEN  =      -585.02541152
  -Hartree energ DENC   =       -97.90593088
  -exchange      EXHF   =         0.00000000
  -V(xc)+E(xc)   XCENC  =         4.28951287
  PAW double counting   =       705.21318967     -714.19091618
  entropy T*S    EENTRO =         0.00000000
  eigenvalues    EBANDS =        26.39794630
  atomic energy  EATOM  =       594.31268070
  Solvation  Ediel_sol  =         0.00000000
  free energy    TOTEN  =        -8.21801029 eV

  energy without entropy =       -8.21801029  energy(sigma->0) =       -8.21801029

 average (electrostatic) potential at core
  the test charge radii are     1.0103
  (the norm of the test charge is              1.0000)
       1 -43.6299

 E-fermi :   5.3816     XC(G=0): -12.9120     alpha+bet :-13.1629

 spin component 1

 k-point     1 :       0.0000    0.0000    0.0000
  band No.  band energies     occupation
      1      -2.7455      1.00000
      2       3.1495      1.00000
      3       3.1496      1.00000
      4       3.1501      1.00000
      5       4.4699      1.00000
      6       4.4700      1.00000
      7      30.1530      0.00000
      8      30.1531      0.00000
      9      30.1537      0.00000
     10      35.0361      0.00000

[...]

 spin component 2

[...]

 k-point  2052 :       0.5000    0.5000    0.5000
  band No.  band energies     occupation
      1       2.6580      1.00000
      2       2.6588      1.00000
      3       7.8317      0.00000
      4       7.8326      0.00000
      5       7.8368      0.00000
      6      15.4041      0.00000
      7      15.4050      0.00000
      8      15.4060      0.00000
      9      21.6980      0.00000
     10      21.6985      0.00000

 soft charge-density along one line, spin component           1
         0         1         2         3         4         5         6         7         8         9
 total charge-density along one line

 soft charge-density along one line, spin component           2
         0         1         2         3         4         5         6         7         8         9
 total charge-density along one line

------------------------ aborting loop because EDIFF is reached ----------------------------------------

 total charge

# of ion       s       p       d       tot
    1        0.470   0.507   6.220   7.197

 magnetization (x)

[...]

  FORCE on cell =-STRESS in cart. coord.  units (eV):
  Direction    XX          YY          ZZ          XY          YZ          ZX
  Alpha Z    58.69092    58.69092    58.69092
  Ewald    -195.00840  -195.00843  -195.00856    -0.00004    -0.00011    -0.00008
  Hartree    32.67598    32.67467    32.67621    -0.00226    -0.00268    -0.00187
  E(xc)     -39.64277   -39.64276   -39.64273     0.00011     0.00036     0.00024
  Local      58.02189    58.02514    58.02080     0.00562     0.00661     0.00462
  n-local   -26.30982   -26.31165   -26.31191    -0.00297    -0.00262    -0.00176
  augment    38.81780    38.81744    38.82070    -0.00015     0.00086     0.00053
  Kinetic    72.40875    72.40862    72.41410     0.00001     0.00136     0.00101
  Fock        0.00000     0.00000     0.00000     0.00000     0.00000     0.00000
  Total      -0.34565    -0.34605    -0.34046     0.00031     0.00378     0.00268
  in kB     -47.02713   -47.08199   -46.32206     0.04279     0.51372     0.36427

 VOLUME and BASIS-vectors are now :
  energy-cutoff  :      520.00
  volume of cell :       11.78
      direct lattice vectors                 reciprocal lattice vectors
     2.482399941  0.000000000  0.000000000     0.402835975  0.142423854  0.246685088
    -0.827465765  2.340429421  0.000000000     0.000000000  0.427272017  0.246685088
    -0.827465765 -1.170212839  2.026872415     0.000000000  0.000000000  0.493370965

  length of vectors
     2.482399941  2.482399940  2.482399940     0.493370965  0.493370965  0.493370965

 FORCES acting on ions
    electron-ion (+dipol)            ewald-force                    non-local-force                 convergence-correction
   0.330E-05 0.737E-06 -.670E-05   -.460E-15 0.137E-14 -.131E-15   -.268E-05 -.357E-06 0.704E-05   -.199E-05 -.344E-06 0.421E-05
   0.330E-05 0.737E-06 -.670E-05   -.460E-15 0.137E-14 -.131E-15   -.268E-05 -.357E-06 0.704E-05   -.199E-05 -.344E-06 0.421E-05

 POSITION                                       TOTAL-FORCE (eV/Angst)
      0.00000      0.00000      0.00000        -0.000001      0.000000      0.000005
    total drift:                               -0.000001      0.000000      0.000005

  FREE ENERGIE OF THE ION-ELECTRON SYSTEM (eV)
  free  energy   TOTEN  =        -8.21801029 eV

  energy  without entropy=       -8.21801029  energy(sigma->0) =       -8.21801029

 total charge

[...]

 magnetization (x)

# of ion       s       p       d       tot
    1       -0.016  -0.058   2.360   2.286

 BZINTS: Fermi energy:  5.381575;  8.000000 electrons
         Band energy:  26.397946;  BLOECHL correction: -0.018612