 vasp.5.4.4.18Apr17-6-g9f103f2a35 (build Dec 15 2018 21:27:11) complex

 executed on             LinuxIFC date 2022.03.06  06:22:42

 INCAR:
 POTCAR:    PAW_PBE Fe 06Sep2000
 POTCAR:    PAW_PBE O 08Apr2002

 POTCAR:    PAW_PBE Fe 06Sep2000
   VRHFIN =Fe:  d7 s1

   TITEL  = PAW_PBE Fe 06Sep2000
   POMASS =   55.847; ZVAL   =    8.000    mass and valenz
   ENMAX  =  267.882; ENMIN  =  200.911 eV

 POTCAR:    PAW_PBE O 08Apr2002
   VRHFIN =O: s2p4

   TITEL  = PAW_PBE O 08Apr2002
   POMASS =   16.000; ZVAL   =    6.000    mass and valenz
   ENMAX  =  400.000; ENMIN  =  300.000 eV

 Optimization of the real space projectors (new method)

 maximal supplied QI-value         = 16.25
 optimisation between [QCUT,QGAM] = [ 11.54, 23.24] = [ 37.28,151.24] Ry
 Optimized for a Real-space Cutoff    1.53 Angstroem

   l    n(q)    QCUT    max X(q) W(low)/X(q) W(high)/X(q)  e(spline)
   2     10    11.539    80.901    0.11E-03    0.14E-03    0.21E-06
   2     10    11.539    75.754    0.11E-03    0.14E-03    0.22E-06
   0     11    11.539    58.752    0.52E-04    0.18E-04    0.33E-06
   0     11    11.539    30.679    0.44E-04    0.16E-04    0.30E-06
   1     10    11.539    17.977    0.53E-04    0.29E-04    0.13E-06
   1     10    11.539    13.559    0.44E-04    0.25E-04    0.11E-06
 Optimization of the real space projectors (new method)

 maximal supplied QI-value         = 24.76
 optimisation between [QCUT,QGAM] = [ 11.64, 23.27] = [ 37.91,151.63] Ry
 Optimized for a Real-space Cutoff    1.14 Angstroem

   l    n(q)    QCUT    max X(q) W(low)/X(q) W(high)/X(q)  e(spline)
   0      8    11.635    20.381    0.10E-03    0.33E-03    0.24E-06
   0      8    11.635    15.268    0.11E-03    0.35E-03    0.26E-06
   1      7    11.635     5.964    0.24E-03    0.31E-03    0.30E-06
   1      7    11.635     5.382    0.22E-03    0.25E-03    0.26E-06
  PAW_PBE Fe 06Sep2000                  :
  PAW_PBE O 08Apr2002                   :

 POSCAR: POSCAR
  positions in direct lattice
  velocities in cartesian coordinates
 exchange correlation table for  LEXCH =        8
   RHO(1)=    0.500       N(1)  =     2000
   RHO(2)=  100.500       N(2)  =     4000

 VTST: version 3.2, (02/03/18)

 CHAIN: initializing optimizer

 OPT: Using VASP Conjugate-Gradient optimizer
 CHAIN: Read ICHAIN            0

 POSCAR: POSCAR
  positions in direct lattice
  velocities in cartesian coordinates

 ion  position               nearest neighbor table
   1  0.087  0.163  0.095-   5 2.48  13 2.48  17 2.48  49 2.48  31 2.48   3 2.48  29 2.87  53 2.87
                            15 2.87  19 2.87
   2  0.089  0.161  0.285-  32 2.37   4 2.40   3 2.43  31 2.45  18 2.47  14 2.48  50 2.49   6 2.49
                            54 2.82  16 2.82  19 2.83  15 2.84  20 2.84  30 2.88
   3  0.212  0.038  0.191-  54 2.40   2 2.43  15 2.48   7 2.48  51 2.48  19 2.48  53 2.48   1 2.48
                            50 2.83   6 2.85  31 2.87  55 2.87  49 2.87   5 2.87
   4  0.214  0.034  0.376-  54 2.39   2 2.40  52 2.42  16 2.43  20 2.52   8 2.53  56 2.76  50 2.77
                             6 2.82  32 2.85
   5  0.337  0.163  0.095-   1 2.48   9 2.48  21 2.48  53 2.48   7 2.48  19 2.48  17 2.87  57 2.87
                             3 2.87  23 2.87
   6  0.339  0.164  0.285-   8 2.44   7 2.44  19 2.45  20 2.46  10 2.48  22 2.49   2 2.49  54 2.49
                            23 2.82   4 2.82   3 2.85  58 2.86  18 2.87  24 2.89
   7  0.462  0.038  0.191-   6 2.44  58 2.47  11 2.48   3 2.48  55 2.48  23 2.48  57 2.48   5 2.48
                            54 2.81  10 2.86  19 2.87  59 2.87  53 2.87   9 2.87
   8  0.465  0.045  0.380-  65 1.86   6 2.44  12 2.44  58 2.45  56 2.47  24 2.50   4 2.53  10 2.78
                            20 2.84  60 2.93  54 2.94
   9  0.587  0.163  0.095-   5 2.48  13 2.48  25 2.48  57 2.48  11 2.48  23 2.48  21 2.87  61 2.87
                             7 2.87  27 2.87
  10  0.589  0.161  0.286-  12 2.44  11 2.45   6 2.48  23 2.48  26 2.48  14 2.48  58 2.49  24 2.50
                             8 2.78  27 2.85  62 2.85  28 2.86   7 2.86  22 2.92
  11  0.712  0.038  0.191-  62 2.43  10 2.45  15 2.48   7 2.48  59 2.48  27 2.48  61 2.48   9 2.48
                            14 2.83  23 2.87  63 2.87  13 2.87  57 2.87  58 2.87
  12  0.716  0.027  0.377-  66 1.86  62 2.39  60 2.41  10 2.44   8 2.44  16 2.53  28 2.56  58 2.76
                            64 2.80  14 2.86  24 3.02
  13  0.837  0.163  0.095-   1 2.48   9 2.48  29 2.48  61 2.48  15 2.48  27 2.48  49 2.87  25 2.87
                            11 2.87  31 2.87
  14  0.839  0.161  0.285-  15 2.42  27 2.45  28 2.46  16 2.47  10 2.48  30 2.48   2 2.48  62 2.48
                            32 2.80  31 2.83  11 2.83  12 2.86  50 2.86  26 2.89
  15  0.962  0.038  0.191-  14 2.42  50 2.46   3 2.48  11 2.48  31 2.48  63 2.48  13 2.48  49 2.48
                            62 2.83   2 2.84  27 2.87  51 2.87   1 2.87  61 2.87
  16  0.969  0.033  0.378-  66 1.86  50 2.41   4 2.43  64 2.46  14 2.47  32 2.50  12 2.53   2 2.82
                            62 2.86  28 2.87  52 2.88
  17  0.087  0.413  0.095-  21 2.48  29 2.48   1 2.48  33 2.48  19 2.48  47 2.48  45 2.87   5 2.87
                            31 2.87  35 2.87
  18  0.087  0.411  0.285-  48 2.44  19 2.45  20 2.45  47 2.45   2 2.47  34 2.48  22 2.48  30 2.48
                            36 2.73  32 2.76  31 2.83  35 2.85  46 2.87   6 2.87
  19  0.212  0.288  0.191-   6 2.45  18 2.45  23 2.48  31 2.48   3 2.48  35 2.48   5 2.48  17 2.48
                             2 2.83  22 2.84   7 2.87  47 2.87  21 2.87   1 2.87
  20  0.212  0.288  0.380-  65 1.86  36 2.43  32 2.44  18 2.45   6 2.46  24 2.51   4 2.52   8 2.84
                             2 2.84  22 2.84  48 2.85
  21  0.337  0.413  0.095-  17 2.48  25 2.48   5 2.48  37 2.48  35 2.48  23 2.48   9 2.87  33 2.87
                            19 2.87  39 2.87
  22  0.335  0.416  0.285-  35 2.43  36 2.44  24 2.44  38 2.45  23 2.47  18 2.48  26 2.48   6 2.49
                            34 2.82  39 2.83  19 2.84  20 2.84  10 2.92  40 2.96
  23  0.462  0.288  0.191-  22 2.47  10 2.48  19 2.48  27 2.48   7 2.48  39 2.48  21 2.48   9 2.48
                             6 2.82  26 2.85  35 2.87  11 2.87   5 2.87  25 2.87
  24  0.461  0.299  0.380-  69 1.87  65 1.89  22 2.44  10 2.50   8 2.50  20 2.51  28 2.52  40 2.57
                            26 2.77  36 2.88   6 2.89  12 3.02
  25  0.587  0.413  0.095-  21 2.48  29 2.48   9 2.48  41 2.48  39 2.48  27 2.48  13 2.87  37 2.87
                            23 2.87  43 2.87
  26  0.586  0.412  0.287-  42 2.46  39 2.47  27 2.48  10 2.48  22 2.48  28 2.48  30 2.49  40 2.63
                            44 2.74  24 2.77  23 2.85  38 2.86  43 2.87  14 2.89
  27  0.712  0.288  0.191-  14 2.45  26 2.48  23 2.48  31 2.48  11 2.48  43 2.48  25 2.48  13 2.48
                            30 2.83  10 2.85  39 2.87  15 2.87   9 2.87  29 2.87
  28  0.719  0.284  0.381-  69 1.86  66 1.91  44 2.43  14 2.46  32 2.47  26 2.48  24 2.52  12 2.56
                            30 2.83  10 2.86  16 2.87
  29  0.837  0.413  0.095-  17 2.48  25 2.48  13 2.48  45 2.48  43 2.48  31 2.48   1 2.87  41 2.87
                            27 2.87  47 2.87
  30  0.837  0.411  0.285-  32 2.41  44 2.44  31 2.45  43 2.45  14 2.48  18 2.48  46 2.48  26 2.49
                            48 2.81  28 2.83  27 2.83  42 2.85  47 2.85   2 2.88
  31  0.962  0.288  0.191-  30 2.45   2 2.45  27 2.48  19 2.48  15 2.48  47 2.48   1 2.48  29 2.48
                            14 2.83  18 2.83  43 2.87   3 2.87  17 2.87  13 2.87
  32  0.968  0.284  0.376-   2 2.37  30 2.41  20 2.44  48 2.45  28 2.47  16 2.50  18 2.76  14 2.80
                             4 2.85  44 2.93
  33  0.087  0.663  0.095-  37 2.48  45 2.48  17 2.48  49 2.48  35 2.48  63 2.48  61 2.87  21 2.87
                            47 2.87  51 2.87
  34  0.088  0.661  0.284-  64 2.36  36 2.38  35 2.42  63 2.44  18 2.48  38 2.48  46 2.49  50 2.49
                            47 2.81  22 2.82  51 2.83  62 2.87  48 2.88  52 2.94
  35  0.212  0.538  0.191-  34 2.42  22 2.43  39 2.48  47 2.48  19 2.48  51 2.48  21 2.48  33 2.48
                            38 2.79  18 2.85  23 2.87  63 2.87  37 2.87  17 2.87
  36  0.199  0.537  0.377-  68 1.83  34 2.38  48 2.38  20 2.43  22 2.44  52 2.57  40 2.57  18 2.73
                            64 2.78  24 2.88  38 2.92
  37  0.337  0.663  0.095-  33 2.48  41 2.48  21 2.48  53 2.48  51 2.48  39 2.48  25 2.87  49 2.87
                            35 2.87  55 2.87
  38  0.337  0.662  0.282-  39 2.40  51 2.40  22 2.45  52 2.46  40 2.46  34 2.48  42 2.48  54 2.50
                            35 2.79  55 2.81  56 2.84  50 2.85  26 2.86  36 2.92
  39  0.462  0.538  0.191-  38 2.40  26 2.47  35 2.48  43 2.48  23 2.48  55 2.48  37 2.48  25 2.48
                            42 2.82  22 2.83  51 2.87  27 2.87  21 2.87  41 2.87
  40  0.449  0.561  0.384-  69 1.90  68 1.91  56 2.41  38 2.46  44 2.47  24 2.57  52 2.57  36 2.57
                            26 2.63  42 2.84  22 2.96
  41  0.587  0.663  0.095-  37 2.48  45 2.48  25 2.48  57 2.48  55 2.48  43 2.48  29 2.87  53 2.87
                            39 2.87  59 2.87
  42  0.588  0.659  0.285-  56 2.41  44 2.41  43 2.44  26 2.46  55 2.46  46 2.48  38 2.48  58 2.51
                            39 2.82  40 2.84  30 2.85  60 2.85  59 2.86  54 2.92
  43  0.712  0.538  0.191-  42 2.44  30 2.45  39 2.48  47 2.48  27 2.48  59 2.48  41 2.48  29 2.48
                            46 2.82  55 2.87  31 2.87  25 2.87  45 2.87  26 2.87
  44  0.705  0.533  0.378-  67 1.88  42 2.41  28 2.43  30 2.44  40 2.47  69 2.52  48 2.54  60 2.54
                            26 2.74  46 2.90  32 2.93  56 2.94
  45  0.837  0.663  0.095-  33 2.48  41 2.48  29 2.48  61 2.48  59 2.48  47 2.48  17 2.87  57 2.87
                            43 2.87  63 2.87
  46  0.837  0.662  0.284-  47 2.43  59 2.44  60 2.44  48 2.47  62 2.48  42 2.48  30 2.48  34 2.49
                            64 2.77  43 2.82  63 2.83  18 2.87  58 2.87  44 2.90
  47  0.962  0.538  0.191-  46 2.43  18 2.45  43 2.48  35 2.48  31 2.48  63 2.48  17 2.48  45 2.48
                            34 2.81  30 2.85  59 2.87  19 2.87  33 2.87  29 2.87
  48  0.960  0.533  0.379-  67 1.88  36 2.38  18 2.44  32 2.45  46 2.47  44 2.54  64 2.54  30 2.81
                            60 2.85  20 2.85  34 2.88
  49  0.087  0.913  0.095-  53 2.48  61 2.48   1 2.48  33 2.48  15 2.48  51 2.48  37 2.87  13 2.87
                             3 2.87  63 2.87
  50  0.089  0.911  0.285-  16 2.41  51 2.43  54 2.45  15 2.46   2 2.49  34 2.49  52 2.50  62 2.50
                            64 2.74   4 2.77   3 2.83  63 2.84  38 2.85  14 2.86
  51  0.212  0.788  0.191-  38 2.40  50 2.43  55 2.48  63 2.48   3 2.48  35 2.48  49 2.48  37 2.48
                            54 2.80  34 2.83  39 2.87  15 2.87  53 2.87  33 2.87
  52  0.225  0.786  0.380-  68 1.85  56 2.38   4 2.42  38 2.46  50 2.50  36 2.57  40 2.57  64 2.59
                            54 2.81  16 2.88  34 2.94
  53  0.337  0.913  0.095-  49 2.48  57 2.48   5 2.48  37 2.48  55 2.48   3 2.48  41 2.87   1 2.87
                             7 2.87  51 2.87
[...]
   -.224E-02 0.143E+01 0.192E+04   0.730E-02 -.150E+01 -.192E+04   -.784E-02 0.605E-01 -.327E+01   -.582E-03 -.256E-03 0.238E-02
   0.367E+01 0.966E+01 -.442E+03   -.403E+01 -.958E+01 0.441E+03   0.359E+00 -.783E-01 0.100E+01   -.122E-02 0.402E-03 0.115E-02
   -.158E+01 0.431E+01 0.746E+03   0.155E+01 -.438E+01 -.746E+03   0.466E-01 0.729E-01 -.441E+00   -.274E-03 -.228E-03 0.371E-02
   0.224E+02 0.228E+02 -.158E+04   -.225E+02 -.225E+02 0.158E+04   0.789E-01 -.206E+00 0.120E+01   -.126E-03 0.304E-03 -.291E-03
   -.583E+00 0.931E+00 0.192E+04   0.639E+00 -.983E+00 -.192E+04   -.570E-01 0.468E-01 -.328E+01   -.926E-04 -.537E-03 0.235E-02
   -.112E+01 -.137E+01 -.448E+03   0.150E+01 0.121E+01 0.447E+03   -.383E+00 0.160E+00 0.117E+01   0.742E-03 0.589E-04 0.203E-02
   0.107E+01 0.121E-01 0.747E+03   -.108E+01 0.503E-01 -.747E+03   -.448E-01 0.192E-01 -.324E+00   0.609E-03 -.823E-03 0.395E-02
   -.874E+02 -.484E+01 -.161E+04   0.884E+02 0.540E+01 0.161E+04   -.952E+00 -.563E+00 0.197E+01   0.175E-02 -.723E-03 0.235E-03
   -.232E-01 0.311E+00 0.192E+04   0.383E-01 -.337E+00 -.192E+04   0.107E-01 0.234E-01 -.324E+01   0.570E-03 -.367E-03 0.261E-02
   -.111E+02 0.200E+01 -.455E+03   0.110E+02 -.202E+01 0.455E+03   0.134E+00 0.163E-01 0.590E+00   0.103E-02 -.190E-03 0.227E-02
   -.962E+00 0.384E+00 0.745E+03   0.993E+00 -.322E+00 -.745E+03   -.269E-01 -.322E-01 -.445E+00   -.394E-05 0.191E-03 0.466E-02
   -.405E+02 0.102E+02 -.173E+04   0.423E+02 -.962E+01 0.173E+04   -.177E+01 -.625E+00 0.442E+01   -.553E-03 -.606E-03 -.662E-03
   0.101E+01 -.161E+00 0.192E+04   -.110E+01 0.231E+00 -.192E+04   0.787E-01 -.498E-01 -.326E+01   -.534E-03 -.436E-04 0.302E-02
   0.727E+01 -.119E+02 -.447E+03   -.733E+01 0.117E+02 0.447E+03   0.544E-01 0.237E+00 0.677E+00   -.144E-02 0.473E-03 0.140E-02
   0.400E+01 0.435E+01 0.756E+03   -.402E+01 -.442E+01 -.756E+03   0.465E-01 -.387E-01 -.291E+00   -.931E-03 0.273E-03 0.453E-02
   0.108E+03 0.353E+02 -.163E+04   -.110E+03 -.358E+02 0.163E+04   0.201E+01 0.503E+00 0.223E+01   -.906E-03 0.591E-03 -.758E-03
   -.491E+00 -.114E+00 0.192E+04   0.559E+00 0.142E+00 -.192E+04   -.518E-01 -.206E-01 -.325E+01   -.327E-03 -.209E-03 0.217E-02
   -.715E+00 -.118E+02 -.420E+03   0.110E+01 0.118E+02 0.419E+03   -.397E+00 0.247E-01 0.130E+01   -.716E-03 -.286E-03 0.199E-02
   -.624E+01 0.638E+01 0.754E+03   0.628E+01 -.649E+01 -.754E+03   -.181E-01 0.332E-01 -.168E+00   -.636E-03 0.265E-04 0.407E-02
   -.635E+02 -.731E+02 -.165E+04   0.640E+02 0.739E+02 0.165E+04   -.566E+00 -.760E+00 0.144E+01   0.693E-03 0.268E-03 -.146E-03
   -.113E+01 -.432E+00 0.192E+04   0.113E+01 0.418E+00 -.192E+04   0.275E-02 0.131E-01 -.325E+01   0.279E-03 0.199E-03 0.227E-02
   -.820E+01 -.174E+02 -.456E+03   0.835E+01 0.169E+02 0.455E+03   -.145E+00 0.451E+00 0.985E+00   0.770E-03 0.110E-03 0.248E-02
   -.132E+01 0.715E+00 0.749E+03   0.145E+01 -.696E+00 -.749E+03   -.192E+00 -.559E-01 -.277E+00   0.104E-02 -.102E-03 0.445E-02
   0.212E+02 0.880E+01 -.164E+04   -.202E+02 -.871E+01 0.164E+04   -.958E+00 -.953E-01 0.349E+01   0.265E-03 -.251E-03 0.377E-05
   0.594E+00 -.300E+00 0.192E+04   -.591E+00 0.319E+00 -.192E+04   0.139E-01 -.363E-02 -.329E+01   0.561E-03 0.370E-03 0.292E-02
   -.590E+00 -.396E+01 -.448E+03   0.754E+00 0.408E+01 0.447E+03   -.169E+00 -.111E+00 0.107E+01   0.126E-02 0.665E-03 0.201E-02
   0.223E+01 0.260E+01 0.748E+03   -.220E+01 -.269E+01 -.748E+03   0.262E-01 0.458E-01 -.443E+00   0.464E-03 0.703E-03 0.490E-02
   -.790E+02 0.538E+02 -.169E+04   0.804E+02 -.550E+02 0.169E+04   -.142E+01 0.117E+01 0.255E+01   -.406E-03 0.604E-03 -.788E-03
   0.555E+00 -.107E+01 0.192E+04   -.586E+00 0.113E+01 -.192E+04   0.318E-01 -.322E-01 -.327E+01   -.687E-03 0.523E-04 0.219E-02
   0.267E+01 -.168E+01 -.480E+03   -.290E+01 0.192E+01 0.480E+03   0.244E+00 -.235E+00 0.294E+00   -.180E-02 0.301E-03 0.242E-02
   0.399E+01 -.645E+01 0.754E+03   -.414E+01 0.647E+01 -.754E+03   0.999E-01 -.338E-01 -.293E+00   -.112E-02 -.648E-03 0.452E-02
   0.437E+02 -.155E+03 -.170E+04   -.433E+02 0.156E+03 0.169E+04   -.401E+00 -.132E+01 0.156E+01   -.813E-03 -.116E-03 -.656E-03
   -.961E+00 -.104E+01 0.192E+04   0.964E+00 0.102E+01 -.192E+04   -.642E-02 0.218E-01 -.322E+01   0.345E-04 0.304E-03 0.193E-02
   -.686E+01 -.810E+01 -.445E+03   0.666E+01 0.850E+01 0.444E+03   0.210E+00 -.403E+00 0.137E+01   0.428E-04 0.512E-03 0.174E-02
   -.880E+01 -.262E+01 0.747E+03   0.897E+01 0.265E+01 -.747E+03   -.130E+00 -.191E-01 -.372E+00   0.388E-03 0.352E-05 0.411E-02
   -.376E+02 -.488E+02 -.170E+04   0.371E+02 0.492E+02 0.170E+04   0.519E+00 -.385E+00 0.233E+01   0.693E-03 -.101E-02 -.246E-03
   -.399E+00 -.461E+00 0.192E+04   0.412E+00 0.458E+00 -.192E+04   -.302E-01 -.203E-01 -.336E+01   0.631E-03 0.161E-03 0.254E-02
   0.342E+01 0.255E+01 -.483E+03   -.306E+01 -.247E+01 0.483E+03   -.356E+00 -.851E-01 0.627E-01   0.139E-02 -.643E-03 0.168E-02
   0.370E+01 -.393E+01 0.744E+03   -.373E+01 0.406E+01 -.743E+03   -.500E-01 -.209E-01 -.351E+00   0.169E-02 0.143E-03 0.461E-02
   0.334E+02 -.107E+03 -.170E+04   -.333E+02 0.109E+03 0.170E+04   -.160E+00 -.164E+01 0.266E+01   0.148E-02 -.176E-03 -.711E-03
   0.794E+00 -.618E+00 0.192E+04   -.785E+00 0.553E+00 -.192E+04   -.825E-02 0.419E-01 -.324E+01   0.726E-04 -.147E-03 0.317E-02
   0.250E+00 0.214E+01 -.446E+03   -.500E+00 -.214E+01 0.446E+03   0.247E+00 0.230E-02 0.763E+00   0.514E-03 -.867E-03 0.233E-02
   0.171E+01 -.273E+01 0.748E+03   -.174E+01 0.272E+01 -.749E+03   0.168E-01 -.242E-02 -.420E+00   -.949E-03 -.254E-03 0.518E-02
   -.206E+02 -.123E+02 -.170E+04   0.208E+02 0.130E+02 0.170E+04   -.166E+00 -.760E+00 0.475E+01   -.109E-02 0.725E-03 -.111E-02
   0.566E+02 0.480E+02 -.171E+04   -.583E+02 -.489E+02 0.174E+04   0.163E+01 0.901E+00 -.258E+02   -.472E-03 0.818E-03 -.180E-03
   -.422E+02 0.349E+02 -.171E+04   0.429E+02 -.335E+02 0.173E+04   -.716E+00 -.144E+01 -.256E+02   0.123E-02 -.748E-03 -.106E-02
   -.244E+02 -.224E+02 -.171E+04   0.259E+02 0.232E+02 0.174E+04   -.144E+01 -.797E+00 -.255E+02   0.678E-03 -.743E-04 -.530E-03
   0.419E+02 -.469E+02 -.173E+04   -.429E+02 0.459E+02 0.175E+04   0.102E+01 0.957E+00 -.268E+02   -.246E-03 -.102E-02 -.277E-03
   -.361E+02 -.213E+02 -.168E+04   0.380E+02 0.226E+02 0.170E+04   -.192E+01 -.132E+01 -.247E+02   0.196E-02 0.155E-02 0.257E-04
   0.297E+01 0.340E+01 0.130E+03   0.568E-12 -.632E-12 0.364E-11   -.296E+01 -.340E+01 -.131E+03   0.285E-02 0.642E-03 0.130E+00

 POSITION                                       TOTAL-FORCE (eV/Angst)
      1.40594      1.52230      2.00000        -0.010667      0.010158      0.307949
      1.42204      1.51270      6.00442         0.000745      0.004813      0.008090
      2.23340      0.35210      4.02685         0.052370      0.013978     -0.409084
      2.23474      0.31564      7.91728         0.002006      0.007724     -0.012350
      3.88832      1.52230      2.00000         0.020373      0.023499      0.271841
      3.91154      1.53193      6.00461         0.004252      0.003117      0.009251
      4.71578      0.35210      4.02685         0.084906     -0.081596     -0.268492
      4.76373      0.42209      8.00839         0.004743     -0.005488     -0.010730
      6.37069      1.52230      2.00000        -0.012813      0.008830      0.306472
      6.38911      1.51026      6.02955        -0.001541     -0.002772      0.016366
      7.19815      0.35210      4.02685        -0.126921      0.034709     -0.310627
      7.19942      0.25110      7.96073         0.014943      0.003294      0.019923
      8.85307      1.52230      2.00000         0.006364      0.001243      0.331900
      8.86802      1.50739      5.99746        -0.001399     -0.004484      0.014999
      9.68053      0.35210      4.02685         0.033136     -0.051286     -0.381437
      9.72850      0.30701      7.98017         0.011286     -0.001293      0.008686
      2.23340      3.86271      2.00000        -0.012885     -0.014065      0.318743
      2.22430      3.85573      6.01376        -0.007166     -0.006048      0.003107
      3.06086      2.69251      4.02685        -0.001374      0.041369     -0.317839
      3.05859      2.69618      8.00592         0.003108     -0.002063     -0.009551
      4.71578      3.86271      2.00000        -0.003723     -0.010863      0.317301
      4.70185      3.88987      6.01109         0.003478      0.000171      0.006396
      5.54324      2.69251      4.02685         0.017770     -0.003639     -0.147556
      5.56566      2.79769      8.01953         0.024143      0.017619     -0.008213
      7.19815      3.86271      2.00000        -0.002145     -0.005639      0.324216
      7.18280      3.85615      6.03961        -0.004529      0.000936      0.015232
      8.02561      2.69251      4.02685        -0.055357      0.080324     -0.244865
      8.08155      2.65447      8.02876        -0.000296     -0.005841      0.006794
      9.68053      3.86271      2.00000         0.026480     -0.003134      0.329041
      9.66818      3.85092      6.01245         0.000862      0.004721      0.019615
     10.50799      2.69251      4.02685         0.003877      0.029254     -0.403929
     10.54965      2.66137      7.92359        -0.001460      0.000597      0.002161
      3.06086      6.20311      2.00000        -0.013609      0.020836      0.328517
      3.05685      6.18658      5.98393        -0.006285      0.003798      0.007969
      3.88832      5.03291      4.02685         0.032413     -0.109848     -0.374009
      3.75116      5.02770      7.94501         0.000600      0.016202     -0.010385
      5.54324      6.20311      2.00000         0.015994      0.008431      0.264640
      5.53475      6.19848      5.94961        -0.006744      0.000653      0.021034
      6.37069      5.03291      4.02685         0.017172     -0.069138     -0.227646
      6.31050      5.25557      8.10036        -0.023297      0.021516     -0.013276
      8.02561      6.20311      2.00000         0.009499     -0.000433      0.313339
      8.01311      6.16745      6.01077         0.005321     -0.004995      0.010487
      8.85307      5.03291      4.02685        -0.064767     -0.035537     -0.259758
      8.76288      4.98729      7.98129        -0.009197     -0.003767      0.016663
     10.50799      6.20311      2.00000         0.017469      0.015205      0.259952
     10.49664      6.19358      5.99247        -0.003770      0.008168      0.019621
     11.33544      5.03291      4.02685         0.053087     -0.044180     -0.377800
     11.29898      4.98904      7.99801        -0.003387     -0.000257     -0.002088
      3.88832      8.54352      2.00000         0.000674      0.025783      0.278672
      3.90166      8.52980      6.00988         0.008445      0.006648      0.002492
      4.71578      7.37332      4.02685        -0.053152     -0.015624     -0.385317
      4.84137      7.36545      8.01563         0.000925     -0.004138      0.007706
      6.37069      8.54352      2.00000        -0.003762      0.003017      0.320255
      6.35183      8.56182      5.96352         0.004701      0.003610      0.004810
      7.19815      7.37332      4.02685         0.041742      0.015800     -0.284158
      7.20201      7.47823      7.86141         0.007580      0.007574     -0.009360
      8.85307      8.54352      2.00000        -0.016879     -0.023309      0.343431
      8.84329      8.53334      6.03824         0.003149     -0.000681      0.020394
      9.68053      7.37332      4.02685        -0.079217      0.107583     -0.251102
      9.70115      7.34329      7.99760        -0.002868     -0.010924      0.006158
     11.33544      8.54352      2.00000         0.000769     -0.023772      0.341328
     11.33067      8.53347      5.98755        -0.000480     -0.004478      0.019095
     12.16290      7.37332      4.02685        -0.021292     -0.011207     -0.539560
     12.18527      7.37043      7.85860        -0.004020     -0.000760     -0.006358
      4.32550      1.87099      9.09591         0.006372      0.009806      0.004893
      8.44571      1.09558      9.06170         0.005572     -0.010230      0.019317
     10.02874      5.84301      9.08119         0.005602     -0.007825      0.014654
      4.83669      5.89698      9.13148        -0.028578      0.005080      0.005030
      6.88159      3.69240      9.00994         0.031653      0.013247     -0.003048
    total drift:                                0.011720     -0.000117     -0.007852

  FREE ENERGIE OF THE ION-ELECTRON SYSTEM (eV)
  free  energy   TOTEN  =      -552.17968237 eV

  energy  without entropy=     -552.25997036  energy(sigma->0) =     -552.20644503

 d Force = 0.9592433E-03[ 0.525E-03, 0.139E-02]  d Energy = 0.1462056E-02-0.503E-03
 d Force = 0.2501321E+02[ 0.250E+02, 0.250E+02]  d Ewald  = 0.2501321E+02-0.113E-05

 stress matrix after NEB project (eV)
    -39.94701      4.40106      0.13740
      4.40106    -42.48925      0.15655
      0.13740      0.15655     -9.83535
  FORCES: max atom, RMS     0.034448    0.012976
  FORCE total and by dimension    0.107783    0.031653
  Stress total and by dimension   59.469820   42.489247
 Conjugate gradient step on ions:
 trial-energy change:   -0.001462  1 .order   -0.000959   -0.001393   -0.000525
  (g-gl).g = 0.123E-02      g.g   = 0.120E-02  gl.gl    = 0.259E-02
 g(Force)  = 0.120E-02   g(Stress)= 0.000E+00 ortho     =-0.298E-04
 gamma     =   0.47402
 trial     =   1.17610
 opt step  =   1.32128  (harmonic =   1.88844) maximal distance =0.00385510
 next E    =  -552.179716   (d E  =  -0.00150)

 reached required accuracy - stopping structural energy minimisation
 writing wavefunctions

 total charge

[...]

 magnetization (x)

# of ion       s       p       d       tot
    1       -0.005  -0.018   2.679   2.657
    2       -0.015  -0.053   2.363   2.295
    3       -0.014  -0.057   2.421   2.350
    4        0.011   0.000   2.568   2.579
    5       -0.004  -0.016   2.688   2.669
    6       -0.013  -0.047   2.518   2.459
    7       -0.015  -0.055   2.460   2.390
    8        0.009   0.006   2.365   2.381
    9       -0.004  -0.016   2.667   2.646
   10       -0.007  -0.041   2.332   2.284
   11       -0.014  -0.058   2.456   2.384
   12       -0.002  -0.008   2.184   2.174
   13       -0.005  -0.017   2.686   2.664
   14       -0.013  -0.052   2.494   2.429
   15       -0.016  -0.059   2.469   2.394
   16        0.006   0.005   2.194   2.205
   17       -0.005  -0.017   2.675   2.653
   18       -0.010  -0.053   2.336   2.273
   19       -0.016  -0.056   2.472   2.400
   20        0.002  -0.012   2.404   2.395
   21       -0.005  -0.016   2.659   2.639
   22       -0.009  -0.033   2.189   2.147
   23       -0.014  -0.054   2.487   2.419
   24       -0.029  -0.047  -2.259  -2.335
   25       -0.005  -0.016   2.675   2.654
   26       -0.004  -0.033   2.365   2.328
   27       -0.016  -0.058   2.464   2.390
   28       -0.002  -0.007   1.995   1.986
   29       -0.005  -0.017   2.676   2.655
   30       -0.012  -0.051   2.444   2.381
   31       -0.015  -0.057   2.447   2.374
   32       -0.003  -0.022   2.691   2.667
   33       -0.004  -0.018   2.675   2.653
   34       -0.015  -0.047   2.303   2.242
   35       -0.014  -0.057   2.429   2.358
   36       -0.005  -0.008   2.081   2.068
   37       -0.004  -0.017   2.677   2.657
   38       -0.002  -0.025   2.238   2.211
   39       -0.015  -0.057   2.458   2.385
   40       -0.023  -0.034  -2.215  -2.271
   41       -0.005  -0.016   2.660   2.639
   42       -0.008  -0.037   2.197   2.152
   43       -0.015  -0.058   2.463   2.391
   44        0.004  -0.002   2.282   2.284
   45       -0.004  -0.017   2.689   2.668
   46       -0.015  -0.054   2.543   2.474
   47       -0.016  -0.057   2.459   2.386
   48        0.002  -0.014   2.312   2.299
   49       -0.005  -0.017   2.685   2.663
   50       -0.005  -0.049   2.312   2.258
   51       -0.015  -0.056   2.455   2.383
   52       -0.031  -0.045  -2.070  -2.147
   53       -0.004  -0.017   2.659   2.638
   54       -0.008  -0.034   2.048   2.005
   55       -0.013  -0.052   2.457   2.391
   56       -0.037  -0.042  -2.379  -2.457
   57       -0.006  -0.017   2.672   2.649
   58       -0.008  -0.040   2.259   2.211
   59       -0.016  -0.057   2.445   2.372
   60        0.008  -0.007   2.312   2.313
   61       -0.004  -0.018   2.681   2.659
   62       -0.013  -0.052   2.391   2.325
   63       -0.015  -0.055   2.420   2.350
   64        0.001  -0.011   2.718   2.709
   65        0.000  -0.005   0.000  -0.004
   66        0.003   0.017   0.000   0.019
   67        0.002   0.039   0.000   0.042
   68       -0.002  -0.086   0.000  -0.088
   69       -0.001  -0.039   0.000  -0.039
tot         -0.554  -2.195 138.581 135.832